EMC 1.51py
61
Reciprocal
   0.5125530000    0.3249740000    0.3249740000 0.01
   0.4510640776    0.2634850776    0.2663764636 0.01
   0.4818085388    0.2942295388    0.2956752318 0.01
   0.5432974612    0.3557184612    0.3542727682 0.01
   0.5740419224    0.3864629224    0.3835715364 0.01
   0.5258867245    0.3116402755    0.3249740000 0.01
   0.5192198622    0.3183071378    0.3249740000 0.01
   0.5058861378    0.3316408622    0.3249740000 0.01
   0.4992192755    0.3383077245    0.3249740000 0.01
   0.5125530000    0.3249740000    0.3020610231 0.01
   0.5125530000    0.3249740000    0.3135175115 0.01
   0.5125530000    0.3249740000    0.3364304885 0.01
   0.5125530000    0.3249740000    0.3478869769 0.01
   0.4643978021    0.2501513531    0.2663764636 0.01
   0.4951422633    0.2808958143    0.2956752318 0.01
   0.5566311857    0.3423847367    0.3542727682 0.01
   0.5873756469    0.3731291979    0.3835715364 0.01
   0.4577309398    0.2568182154    0.2663764636 0.01
   0.4884754010    0.2875626766    0.2956752318 0.01
   0.5499643234    0.3490515990    0.3542727682 0.01
   0.5807087846    0.3797960602    0.3835715364 0.01
   0.4443972154    0.2701519398    0.2663764636 0.01
   0.4751416766    0.3008964010    0.2956752318 0.01
   0.5366305990    0.3623853234    0.3542727682 0.01
   0.5673750602    0.3931297846    0.3835715364 0.01
   0.4377303531    0.2768188021    0.2663764636 0.01
   0.4684748143    0.3075632633    0.2956752318 0.01
   0.5299637367    0.3690521857    0.3542727682 0.01
   0.5607081979    0.3997966469    0.3835715364 0.01
   0.4510640776    0.2634850776    0.2434634867 0.01
   0.4818085388    0.2942295388    0.2727622549 0.01
   0.5432974612    0.3557184612    0.3313597912 0.01
   0.5740419224    0.3864629224    0.3606585594 0.01
   0.4510640776    0.2634850776    0.2549199751 0.01
   0.4818085388    0.2942295388    0.2842187433 0.01
   0.5432974612    0.3557184612    0.3428162797 0.01
   0.5740419224    0.3864629224    0.3721150479 0.01
   0.4510640776    0.2634850776    0.2778329521 0.01
   0.4818085388    0.2942295388    0.3071317203 0.01
   0.5432974612    0.3557184612    0.3657292567 0.01
   0.5740419224    0.3864629224    0.3950280249 0.01
   0.4510640776    0.2634850776    0.2892894406 0.01
   0.4818085388    0.2942295388    0.3185882088 0.01
   0.5432974612    0.3557184612    0.3771857451 0.01
   0.5740419224    0.3864629224    0.4064845133 0.01
   0.5258867245    0.3116402755    0.3020610231 0.01
   0.5192198622    0.3183071378    0.3020610231 0.01
   0.5058861378    0.3316408622    0.3020610231 0.01
   0.4992192755    0.3383077245    0.3020610231 0.01
   0.5258867245    0.3116402755    0.3135175115 0.01
   0.5192198622    0.3183071378    0.3135175115 0.01
   0.5058861378    0.3316408622    0.3135175115 0.01
   0.4992192755    0.3383077245    0.3135175115 0.01
   0.5258867245    0.3116402755    0.3364304885 0.01
   0.5192198622    0.3183071378    0.3364304885 0.01
   0.5058861378    0.3316408622    0.3364304885 0.01
   0.4992192755    0.3383077245    0.3364304885 0.01
   0.5258867245    0.3116402755    0.3478869769 0.01
   0.5192198622    0.3183071378    0.3478869769 0.01
   0.5058861378    0.3316408622    0.3478869769 0.01
   0.4992192755    0.3383077245    0.3478869769 0.01
