Non SCF run along symmetry lines
224
Reciprocal
0.0 0.0 0.0 1 \Gamma
0.021739130434782608 3.989202216339608e-34 0.0 1 
0.043478260869565216 7.978404432679216e-34 0.0 1 
0.06521739130434782 6.401583926788607e-34 0.0 1 
0.08695652173913043 1.595680886535843e-33 0.0 1 
0.10869565217391304 3.2479429150073892e-34 0.0 1 
0.13043478260869565 1.2803167853577214e-33 0.0 1 
0.15217391304347827 3.0909181013421945e-33 0.0 1 
0.17391304347826086 3.191361773071686e-33 0.0 1 
0.1956521739130435 5.49144911271986e-34 0.0 1 
0.21739130434782608 6.4958858300147784e-34 0.0 1 
0.2391304347826087 2.460189898985951e-33 0.0 1 
0.2608695652173913 2.5606335707154428e-33 0.0 1 
0.2826086956521739 2.6610772424449346e-33 0.0 1 
0.30434782608695654 6.181836202684389e-33 0.0 1 
0.32608695652173914 6.282279874413881e-33 0.0 1 
0.34782608695652173 6.382723546143373e-33 0.0 1 
0.3695652173913043 6.483167217872864e-33 0.0 1 
0.391304347826087 1.098289822543972e-33 0.0 1 
0.41304347826086957 1.1987334942734639e-33 0.0 1 
0.43478260869565216 1.2991771660029557e-33 0.0 1 
0.45652173913043476 1.3996208377324475e-33 0.0 1 
0.4782608695652174 4.920379797971902e-33 0.0 1 
0.5 5.020823469701394e-33 0.0 1 X
0.5 5.020823469701394e-33 0.0 1 X
0.5 0.02380952380952381 0.0 1 
0.5 0.047619047619047616 0.0 1 
0.5 0.07142857142857142 0.0 1 
0.5 0.09523809523809525 0.0 1 
0.5 0.11904761904761905 0.0 1 
0.5 0.14285714285714288 0.0 1 
0.5 0.16666666666666669 0.0 1 
0.5 0.1904761904761905 0.0 1 
0.5 0.2142857142857143 0.0 1 
0.5 0.2380952380952381 0.0 1 
0.5 0.2619047619047619 0.0 1 
0.5 0.2857142857142857 0.0 1 
0.5 0.30952380952380953 0.0 1 
0.5 0.3333333333333333 0.0 1 
0.5 0.35714285714285715 0.0 1 
0.5 0.38095238095238093 0.0 1 
0.5 0.40476190476190477 0.0 1 
0.5 0.42857142857142855 0.0 1 
0.5 0.4523809523809524 0.0 1 
0.5 0.4761904761904762 0.0 1 
0.5 0.5 0.0 1 S
0.5 0.5 0.0 1 S
0.4782608695652174 0.5 0.0 1 
0.45652173913043476 0.5 0.0 1 
0.43478260869565216 0.5 0.0 1 
0.41304347826086957 0.5 0.0 1 
0.391304347826087 0.5 0.0 1 
0.3695652173913043 0.5 0.0 1 
0.34782608695652173 0.5 0.0 1 
0.32608695652173914 0.5 0.0 1 
0.3043478260869565 0.49999999999999994 0.0 1 
0.2826086956521739 0.49999999999999994 0.0 1 
0.2608695652173913 0.49999999999999994 0.0 1 
0.2391304347826087 0.5 0.0 1 
0.2173913043478261 0.5 0.0 1 
0.19565217391304346 0.5 0.0 1 
0.17391304347826086 0.5 0.0 1 
0.15217391304347824 0.5 0.0 1 
0.13043478260869565 0.5 0.0 1 
0.108695652173913 0.5 0.0 1 
0.08695652173913042 0.5 0.0 1 
0.06521739130434782 0.5 0.0 1 
0.043478260869565244 0.5 0.0 1 
0.021739130434782587 0.5 0.0 1 
0.0 0.5 0.0 1 Y
0.0 0.5 0.0 1 Y
0.0 0.47619047619047616 0.0 1 
0.0 0.4523809523809524 0.0 1 
0.0 0.42857142857142855 0.0 1 
0.0 0.40476190476190477 0.0 1 
0.0 0.38095238095238093 0.0 1 
0.0 0.35714285714285715 0.0 1 
0.0 0.3333333333333333 0.0 1 
0.0 0.30952380952380953 0.0 1 
0.0 0.2857142857142857 0.0 1 
0.0 0.2619047619047619 0.0 1 
0.0 0.23809523809523808 0.0 1 
0.0 0.21428571428571427 0.0 1 
0.0 0.19047619047619047 0.0 1 
0.0 0.16666666666666666 0.0 1 
0.0 0.14285714285714285 0.0 1 
0.0 0.11904761904761904 0.0 1 
0.0 0.09523809523809523 0.0 1 
0.0 0.07142857142857142 0.0 1 
0.0 0.047619047619047616 0.0 1 
0.0 0.023809523809523808 0.0 1 
0.0 0.0 0.0 1 \Gamma
0.0 0.0 0.0 1 \Gamma
1.2981630281502716e-34 2.0333031760941394e-34 0.05555555555555555 1 
2.5963260563005433e-34 4.066606352188279e-34 0.1111111111111111 1 
5.820419028838051e-34 4.1739795838951824e-34 0.16666666666666666 1 
5.1926521126010865e-34 8.133212704376558e-34 0.2222222222222222 1 
-3.138834581184821e-34 -3.314993730239954e-34 0.27777777777777773 1 
1.1640838057676101e-33 8.347959167790365e-34 0.3333333333333333 1 
3.309351363890194e-34 -3.1002472668261467e-34 0.38888888888888884 1 
1.0385304225202173e-33 1.6266425408753115e-33 0.4444444444444444 1 
2.0538175314162654e-34 4.818218974136604e-34 0.49999999999999994 1 Z
2.0538175314162654e-34 4.818218974136604e-34 0.49999999999999994 1 Z
0.02173913043478261 2.022565852923449e-33 0.49999999999999994 1 
0.04347826086956522 4.818218974136604e-34 0.49999999999999994 1 
0.06521739130434782 3.563309808433238e-33 0.49999999999999994 1 
0.08695652173913043 4.818218974136604e-34 0.49999999999999994 1 
0.10869565217391304 -1.0589220580961283e-33 0.49999999999999994 1 
0.13043478260869562 2.022565852923449e-33 0.49999999999999994 1 
0.15217391304347824 -2.599666013605917e-33 0.49999999999999994 1 
0.17391304347826086 3.563309808433238e-33 0.49999999999999994 1 
0.1956521739130435 4.818218974136604e-34 0.49999999999999994 1 
0.21739130434782608 4.818218974136604e-34 0.49999999999999994 1 
0.2391304347826087 6.644797719452816e-33 0.49999999999999994 1 
0.2608695652173913 6.644797719452816e-33 0.49999999999999994 1 
0.2826086956521739 6.644797719452816e-33 0.49999999999999994 1 
0.30434782608695654 1.1267029585982182e-32 0.49999999999999994 1 
0.32608695652173914 1.1267029585982182e-32 0.49999999999999994 1 
0.34782608695652173 1.1267029585982182e-32 0.49999999999999994 1 
0.3695652173913043 1.1267029585982182e-32 0.49999999999999994 1 
0.391304347826087 -2.599666013605917e-33 0.49999999999999994 1 
0.41304347826086957 -2.599666013605917e-33 0.49999999999999994 1 
0.43478260869565216 -2.599666013605917e-33 0.49999999999999994 1 
0.45652173913043476 -2.599666013605917e-33 0.49999999999999994 1 
0.4782608695652174 9.726285630472393e-33 0.49999999999999994 1 
0.5 9.726285630472393e-33 0.49999999999999994 1 U
0.5 9.726285630472393e-33 0.49999999999999994 1 U
0.5 0.023809523809523808 0.49999999999999994 1 
0.5 0.047619047619047616 0.49999999999999994 1 
0.5 0.07142857142857142 0.49999999999999994 1 
0.5 0.09523809523809523 0.49999999999999994 1 
0.5 0.11904761904761904 0.49999999999999994 1 
0.5 0.14285714285714285 0.49999999999999994 1 
0.5 0.16666666666666666 0.49999999999999994 1 
0.5 0.1904761904761905 0.49999999999999994 1 
0.5 0.2142857142857143 0.49999999999999994 1 
0.5 0.2380952380952381 0.49999999999999994 1 
0.5 0.2619047619047619 0.49999999999999994 1 
0.5 0.2857142857142857 0.49999999999999994 1 
0.5 0.30952380952380953 0.49999999999999994 1 
0.5 0.3333333333333333 0.49999999999999994 1 
0.5 0.35714285714285715 0.49999999999999994 1 
0.5 0.38095238095238093 0.49999999999999994 1 
0.5 0.40476190476190477 0.49999999999999994 1 
0.5 0.42857142857142855 0.49999999999999994 1 
0.5 0.4523809523809524 0.49999999999999994 1 
0.5 0.4761904761904762 0.49999999999999994 1 
0.5 0.5 0.49999999999999994 1 R
0.5 0.5 0.49999999999999994 1 R
0.4782608695652174 0.5 0.49999999999999994 1 
0.45652173913043476 0.5 0.49999999999999994 1 
0.43478260869565216 0.5 0.49999999999999994 1 
0.41304347826086957 0.5 0.49999999999999994 1 
0.391304347826087 0.5 0.49999999999999994 1 
0.3695652173913043 0.5 0.49999999999999994 1 
0.34782608695652173 0.5 0.49999999999999994 1 
0.32608695652173914 0.5 0.49999999999999994 1 
0.3043478260869565 0.49999999999999994 0.49999999999999994 1 
0.2826086956521739 0.49999999999999994 0.49999999999999994 1 
0.2608695652173913 0.49999999999999994 0.49999999999999994 1 
0.2391304347826087 0.5 0.49999999999999994 1 
0.2173913043478261 0.5 0.49999999999999994 1 
0.19565217391304346 0.5 0.49999999999999994 1 
0.17391304347826086 0.5 0.49999999999999994 1 
0.15217391304347824 0.5 0.49999999999999994 1 
0.13043478260869565 0.5 0.49999999999999994 1 
0.10869565217391301 0.5 0.49999999999999994 1 
0.08695652173913043 0.5 0.49999999999999994 1 
0.06521739130434784 0.5 0.49999999999999994 1 
0.04347826086956526 0.5 0.49999999999999994 1 
0.021739130434782598 0.5 0.49999999999999994 1 
1.1031777906798337e-17 0.5 0.49999999999999994 1 T
2.0538175314162654e-34 0.5 0.49999999999999994 1 T
2.0538175314162654e-34 0.47619047619047616 0.49999999999999994 1 
2.0538175314162654e-34 0.4523809523809524 0.49999999999999994 1 
2.0538175314162654e-34 0.42857142857142855 0.49999999999999994 1 
2.0538175314162654e-34 0.40476190476190477 0.49999999999999994 1 
2.0538175314162654e-34 0.38095238095238093 0.49999999999999994 1 
2.0538175314162654e-34 0.35714285714285715 0.49999999999999994 1 
2.0538175314162654e-34 0.3333333333333333 0.49999999999999994 1 
2.0538175314162654e-34 0.30952380952380953 0.49999999999999994 1 
2.0538175314162654e-34 0.2857142857142857 0.49999999999999994 1 
2.0538175314162654e-34 0.2619047619047619 0.49999999999999994 1 
2.0538175314162654e-34 0.23809523809523808 0.49999999999999994 1 
2.0538175314162654e-34 0.21428571428571427 0.49999999999999994 1 
2.0538175314162654e-34 0.19047619047619047 0.49999999999999994 1 
2.0538175314162654e-34 0.16666666666666666 0.49999999999999994 1 
2.0538175314162654e-34 0.14285714285714285 0.49999999999999994 1 
2.0538175314162654e-34 0.11904761904761905 0.49999999999999994 1 
2.0538175314162654e-34 0.09523809523809525 0.49999999999999994 1 
2.0538175314162654e-34 0.07142857142857144 0.49999999999999994 1 
2.0538175314162654e-34 0.04761904761904763 0.49999999999999994 1 
2.0538175314162654e-34 0.02380952380952382 0.49999999999999994 1 
2.0538175314162654e-34 1.2014291665745762e-17 0.49999999999999994 1 Z
0.0 0.5 0.0 1 Y
1.2981630281502716e-34 0.5 0.05555555555555555 1 
2.5963260563005433e-34 0.5 0.1111111111111111 1 
5.820419028838051e-34 0.5 0.16666666666666666 1 
5.1926521126010865e-34 0.5 0.2222222222222222 1 
-3.138834581184821e-34 0.5 0.27777777777777773 1 
1.1640838057676101e-33 0.5 0.3333333333333333 1 
3.309351363890194e-34 0.5 0.38888888888888884 1 
1.0385304225202173e-33 0.5 0.4444444444444444 1 
2.0538175314162654e-34 0.5 0.49999999999999994 1 T
0.5 9.726285630472393e-33 0.49999999999999994 1 U
0.5 1.2411850229443832e-32 0.4444444444444444 1 
0.5 1.663815878392506e-32 0.38888888888888884 1 
0.5 2.375539872288825e-33 0.3333333333333333 1 
0.5 5.8314764490151593e-33 0.27777777777777773 1 
0.5 9.287413025741494e-33 0.2222222222222222 1 
0.5 1.2743349602467827e-32 0.16666666666666666 1 
0.5 -1.904455298045855e-33 0.1111111111111111 1 
0.5 1.551481278680479e-33 0.05555555555555555 1 
0.5 5.020823469701394e-33 0.0 1 X
0.5 0.5 0.0 1 S
0.5 0.5 0.05555555555555555 1 
0.5 0.5 0.1111111111111111 1 
0.5 0.5 0.16666666666666666 1 
0.5 0.5 0.2222222222222222 1 
0.5 0.5 0.27777777777777773 1 
0.5 0.5 0.3333333333333333 1 
0.5 0.5 0.38888888888888884 1 
0.5 0.5 0.4444444444444444 1 
0.5 0.5 0.49999999999999994 1 R
