Non SCF run along symmetry lines
392
Reciprocal
0.0 0.0 0.0 1 \Gamma
0.006728461529826826 0.006728461529826824 0.0 1 
0.013456923059653653 0.013456923059653647 0.0 1 
0.02018538458948048 0.020185384589480472 0.0 1 
0.026913846119307305 0.026913846119307295 0.0 1 
0.03364230764913414 0.03364230764913412 0.0 1 
0.04037076917896096 0.040370769178960944 0.0 1 
0.0470992307087878 0.04709923070878777 0.0 1 
0.05382769223861461 0.05382769223861459 0.0 1 
0.060556153768441444 0.060556153768441416 0.0 1 
0.06728461529826828 0.06728461529826824 0.0 1 
0.0740130768280951 0.07401307682809508 0.0 1 
0.08074153835792192 0.08074153835792189 0.0 1 
0.08746999988774874 0.08746999988774873 0.0 1 
0.0941984614175756 0.09419846141757554 0.0 1 
0.10092692294740242 0.10092692294740237 0.0 1 
0.10765538447722922 0.10765538447722918 0.0 1 
0.11438384600705608 0.11438384600705603 0.0 1 
0.12111230753688289 0.12111230753688283 0.0 1 
0.12784076906670971 0.12784076906670966 0.0 1 
0.13456923059653655 0.13456923059653647 0.0 1 
0.14129769212636337 0.1412976921263633 0.0 1 
0.1480261536561902 0.14802615365619015 0.0 1 
0.15475461518601705 0.154754615186017 0.0 1 
0.16148307671584383 0.16148307671584378 0.0 1 
0.16821153824567067 0.16821153824567062 0.0 1 
0.17493999977549748 0.17493999977549746 0.0 1 
0.18166846130532435 0.1816684613053243 0.0 1 
0.1883969228351512 0.18839692283515108 0.0 1 
0.19512538436497798 0.1951253843649779 0.0 1 
0.20185384589480485 0.20185384589480473 0.0 1 
0.20858230742463169 0.20858230742463157 0.0 1 
0.21531076895445844 0.21531076895445836 0.0 1 
0.2220392304842853 0.2220392304842852 0.0 1 
0.22876769201411215 0.22876769201411207 0.0 1 
0.23549615354393896 0.23549615354393885 0.0 1 
0.24222461507376578 0.24222461507376566 0.0 1 
0.24895307660359262 0.24895307660359253 0.0 1 
0.25568153813341943 0.2556815381334193 0.0 1 
0.2624099996632463 0.26240999966324613 0.0 1 
0.2691384611930731 0.26913846119307294 0.0 1 
0.2758669227228999 0.27586692272289975 0.0 1 
0.28259538425272673 0.2825953842527266 0.0 1 X
0.28259538425272673 0.2825953842527266 0.0 1 X
0.26375569196921167 0.29708902530254483 0.0 1 
0.2449159996856965 0.31158266635236304 0.0 1 
0.2260763074021814 0.3260763074021813 0.0 1 
0.2072366151186663 0.3405699484519995 0.0 1 
0.18839692283515125 0.3550635895018177 0.0 1 
0.16955723055163602 0.369557230551636 0.0 1 
0.15071753826812095 0.3840508716014542 0.0 1 
0.13187784598460586 0.39854451265127244 0.0 1 
0.11303815370109074 0.41303815370109065 0.0 1 
0.09419846141757562 0.42753179475090886 0.0 1 
0.07535876913406056 0.44202543580072706 0.0 1 
0.056519076850545386 0.45651907685054527 0.0 1 
0.037679384567030294 0.4710127179003635 0.0 1 
0.018839692283515175 0.48550635895018174 0.0 1 
8.326672684688674e-17 0.49999999999999994 0.0 1 S
8.326672684688674e-17 0.49999999999999994 0.0 1 S
8.25308021209523e-17 0.49999999999999994 0.013513513513513516 1 
8.179487739501785e-17 0.49999999999999994 0.027027027027027032 1 
8.10589526690834e-17 0.49999999999999994 0.04054054054054054 1 
8.032302794314895e-17 0.49999999999999994 0.054054054054054064 1 
7.95871032172145e-17 0.49999999999999994 0.06756756756756757 1 
7.885117849128006e-17 0.49999999999999994 0.08108108108108109 1 
7.811525376534562e-17 0.49999999999999994 0.09459459459459461 1 
7.737932903941117e-17 0.49999999999999994 0.10810810810810813 1 
7.664340431347672e-17 0.49999999999999994 0.12162162162162163 1 
7.590747958754227e-17 0.49999999999999994 0.13513513513513514 1 
7.517155486160783e-17 0.49999999999999994 0.14864864864864866 1 
7.443563013567338e-17 0.49999999999999994 0.16216216216216217 1 
7.369970540973894e-17 0.49999999999999994 0.17567567567567569 1 
7.296378068380449e-17 0.49999999999999994 0.18918918918918923 1 
7.222785595787004e-17 0.49999999999999994 0.20270270270270271 1 
7.149193123193559e-17 0.49999999999999994 0.21621621621621626 1 
7.075600650600115e-17 0.49999999999999994 0.22972972972972977 1 
7.00200817800667e-17 0.5 0.24324324324324326 1 
1.2479530828539007e-16 0.49999999999999994 0.25675675675675674 1 
1.2405938355945563e-16 0.49999999999999994 0.2702702702702703 1 
1.2332345883352118e-16 0.49999999999999994 0.28378378378378377 1 
1.2258753410758674e-16 0.49999999999999994 0.2972972972972973 1 
1.218516093816523e-16 0.49999999999999994 0.3108108108108108 1 
1.2111568465571785e-16 0.49999999999999994 0.32432432432432434 1 
1.203797599297834e-16 0.49999999999999994 0.33783783783783783 1 
1.1964383520384896e-16 0.49999999999999994 0.35135135135135137 1 
1.1890791047791452e-16 0.49999999999999994 0.36486486486486486 1 
1.1817198575198007e-16 0.49999999999999994 0.37837837837837845 1 
1.174360610260456e-16 0.49999999999999994 0.39189189189189194 1 
1.1670013630011116e-16 0.49999999999999994 0.40540540540540543 1 
1.1596421157417672e-16 0.49999999999999994 0.4189189189189189 1 
1.1522828684824227e-16 0.49999999999999994 0.4324324324324325 1 
1.1449236212230783e-16 0.49999999999999994 0.445945945945946 1 
1.1375643739637338e-16 0.49999999999999994 0.45945945945945954 1 
1.1302051267043894e-16 0.49999999999999994 0.47297297297297297 1 
1.122845879445045e-16 0.49999999999999994 0.4864864864864865 1 
1.1154866321857005e-16 0.49999999999999994 0.5 1 R
1.1154866321857005e-16 0.49999999999999994 0.5 1 R
0.018839692283515203 0.48550635895018174 0.5 1 
0.037679384567030294 0.47101271790036353 0.5 1 
0.05651907685054544 0.45651907685054527 0.5 1 
0.07535876913406056 0.44202543580072706 0.5 1 
0.09419846141757562 0.42753179475090886 0.5 1 
0.11303815370109077 0.4130381537010906 0.5 1 
0.1318778459846059 0.3985445126512724 0.5 1 
0.15071753826812098 0.3840508716014542 0.5 1 
0.16955723055163605 0.369557230551636 0.5 1 
0.18839692283515122 0.35506358950181777 0.5 1 
0.20723661511866628 0.34056994845199956 0.5 1 
0.22607630740218146 0.3260763074021813 0.5 1 
0.24491599968569658 0.3115826663523631 0.5 1 
0.2637556919692117 0.29708902530254483 0.5 1 
0.2825953842527268 0.2825953842527266 0.5 1 A
0.2825953842527268 0.2825953842527266 0.5 1 A
0.2758669227229 0.2758669227228998 0.5 1 
0.26913846119307316 0.26913846119307294 0.5 1 
0.26240999966324635 0.26240999966324613 0.5 1 
0.25568153813341943 0.2556815381334194 0.5 1 
0.24895307660359264 0.24895307660359253 0.5 1 
0.24222461507376583 0.24222461507376572 0.5 1 
0.235496153543939 0.23549615354393885 0.5 1 
0.22876769201411218 0.22876769201411207 0.5 1 
0.2220392304842853 0.22203923048428523 0.5 1 
0.2153107689544585 0.21531076895445841 0.5 1 
0.20858230742463163 0.20858230742463157 0.5 1 
0.20185384589480485 0.20185384589480476 0.5 1 
0.19512538436497798 0.19512538436497792 0.5 1 
0.1883969228351512 0.1883969228351511 0.5 1 
0.18166846130532438 0.1816684613053243 0.5 1 
0.17493999977549757 0.17493999977549748 0.5 1 
0.1682115382456707 0.16821153824567062 0.5 1 
0.1614830767158439 0.1614830767158438 0.5 1 
0.15475461518601705 0.15475461518601696 0.5 1 
0.14802615365619023 0.14802615365619015 0.5 1 
0.14129769212636337 0.14129769212636334 0.5 1 
0.13456923059653655 0.1345692305965365 0.5 1 
0.12784076906670971 0.12784076906670966 0.5 1 
0.12111230753688292 0.12111230753688287 0.5 1 
0.11438384600705609 0.11438384600705605 0.5 1 
0.10765538447722926 0.10765538447722921 0.5 1 
0.10092692294740241 0.10092692294740237 0.5 1 
0.09419846141757561 0.09419846141757555 0.5 1 
0.08746999988774878 0.08746999988774876 0.5 1 
0.08074153835792193 0.0807415383579219 0.5 1 
0.07401307682809509 0.07401307682809506 0.5 1 
0.06728461529826832 0.06728461529826828 0.5 1 
0.060556153768441465 0.060556153768441444 0.5 1 
0.05382769223861462 0.0538276922386146 0.5 1 
0.04709923070878781 0.047099230708787784 0.5 1 
0.04037076917896099 0.04037076917896098 0.5 1 
0.033642307649134146 0.03364230764913413 0.5 1 
0.026913846119307333 0.026913846119307326 0.5 1 
0.020185384589480486 0.020185384589480482 0.5 1 
0.013456923059653673 0.01345692305965367 0.5 1 
0.0067284615298268645 0.006728461529826862 0.5 1 
1.538860640846806e-17 1.5388606408468043e-17 0.5 1 Z
6.162975822039155e-33 1.232595164407831e-32 0.5 1 Z
1.5407439555097887e-32 0.0 0.4864864864864865 1 
1.232595164407831e-32 0.0 0.47297297297297297 1 
9.244463733058732e-33 -6.162975822039155e-33 0.4594594594594595 1 
9.244463733058732e-33 -6.162975822039155e-33 0.445945945945946 1 
1.232595164407831e-32 0.0 0.4324324324324325 1 
9.244463733058732e-33 0.0 0.4189189189189189 1 
6.162975822039155e-33 0.0 0.40540540540540543 1 
6.162975822039155e-33 0.0 0.39189189189189194 1 
9.244463733058732e-33 0.0 0.37837837837837845 1 
9.244463733058732e-33 0.0 0.36486486486486486 1 
6.162975822039155e-33 0.0 0.35135135135135137 1 
3.0814879110195774e-33 0.0 0.3378378378378379 1 
9.244463733058732e-33 0.0 0.32432432432432434 1 
6.162975822039155e-33 0.0 0.3108108108108108 1 
3.0814879110195774e-33 6.162975822039155e-33 0.2972972972972973 1 
3.0814879110195774e-33 6.162975822039155e-33 0.28378378378378377 1 
3.0814879110195774e-33 0.0 0.27027027027027023 1 
3.0814879110195774e-33 6.162975822039155e-33 0.25675675675675674 1 
6.162975822039155e-33 0.0 0.24324324324324326 1 
4.622231866529366e-33 -3.0814879110195774e-33 0.22972972972972974 1 
4.622231866529366e-33 -3.0814879110195774e-33 0.21621621621621626 1 
3.0814879110195774e-33 0.0 0.20270270270270271 1 
3.0814879110195774e-33 0.0 0.18918918918918923 1 
3.0814879110195774e-33 0.0 0.17567567567567569 1 
1.5407439555097887e-33 0.0 0.1621621621621622 1 
0.0 3.0814879110195774e-33 0.14864864864864866 1 
0.0 0.0 0.13513513513513517 1 
2.311115933264683e-33 -3.0814879110195774e-33 0.1216216216216216 1 
4.622231866529366e-33 -1.5407439555097887e-33 0.1081081081081081 1 
1.5407439555097887e-33 4.622231866529366e-33 0.09459459459459461 1 
7.703719777548943e-34 4.622231866529366e-33 0.08108108108108111 1 
2.311115933264683e-33 0.0 0.06756756756756754 1 
2.311115933264683e-33 -7.703719777548943e-34 0.05405405405405405 1 
2.6963019221421302e-33 -3.0814879110195774e-33 0.04054054054054048 1 
-7.703719777548943e-34 3.851859888774472e-33 0.027027027027027063 1 
-2.8888949165808538e-34 1.5407439555097887e-33 0.013513513513513493 1 
0.0 0.0 0.0 1 \Gamma
0.0 0.0 0.0 1 \Gamma
-0.018518518518518517 0.018518518518518517 0.0 1 
-0.037037037037037035 0.037037037037037035 0.0 1 
-0.05555555555555555 0.05555555555555555 0.0 1 
-0.07407407407407407 0.07407407407407407 0.0 1 
-0.09259259259259259 0.09259259259259259 0.0 1 
-0.1111111111111111 0.1111111111111111 0.0 1 
-0.12962962962962962 0.12962962962962962 0.0 1 
-0.14814814814814814 0.14814814814814814 0.0 1 
-0.16666666666666666 0.16666666666666666 0.0 1 
-0.18518518518518517 0.18518518518518517 0.0 1 
-0.2037037037037037 0.2037037037037037 0.0 1 
-0.2222222222222222 0.2222222222222222 0.0 1 
-0.24074074074074076 0.24074074074074076 0.0 1 
-0.25925925925925924 0.25925925925925924 0.0 1 
-0.2777777777777778 0.2777777777777778 0.0 1 
-0.2962962962962963 0.2962962962962963 0.0 1 
-0.3148148148148148 0.3148148148148148 0.0 1 
-0.3333333333333333 0.3333333333333333 0.0 1 
-0.35185185185185186 0.35185185185185186 0.0 1 
-0.37037037037037035 0.37037037037037035 0.0 1 
-0.3888888888888889 0.3888888888888889 0.0 1 
-0.4074074074074074 0.4074074074074074 0.0 1 
-0.42592592592592593 0.42592592592592593 0.0 1 
-0.4444444444444444 0.4444444444444444 0.0 1 
-0.46296296296296297 0.46296296296296297 0.0 1 
-0.4814814814814815 0.4814814814814815 0.0 1 
-0.5 0.5 0.0 1 Y
-0.5 0.5 0.0 1 Y
-0.4932061057578977 0.5067938942421023 0.0 1 
-0.4864122115157954 0.5135877884842046 0.0 1 
-0.47961831727369314 0.5203816827263069 0.0 1 
-0.47282442303159083 0.5271755769684092 0.0 1 
-0.46603052878948853 0.5339694712105114 0.0 1 
-0.4592366345473863 0.5407633654526137 0.0 1 
-0.452442740305284 0.547557259694716 0.0 1 
-0.44564884606318167 0.5543511539368183 0.0 1 
-0.43885495182107936 0.5611450481789206 0.0 1 
-0.43206105757897706 0.5679389424210229 0.0 1 
-0.4252671633368748 0.5747328366631252 0.0 1 
-0.4184732690947725 0.5815267309052276 0.0 1 
-0.4116793748526702 0.5883206251473299 0.0 1 
-0.40488548061056795 0.595114519389432 0.0 1 
-0.39809158636846564 0.6019084136315345 0.0 1 
-0.39129769212636334 0.6087023078736367 0.0 1 
-0.3845037978842609 0.6154962021157389 0.0 1 
-0.3777099036421586 0.6222900963578412 0.0 1 
-0.37091600940005637 0.6290839905999435 0.0 1 
-0.36412211515795406 0.6358778848420458 0.0 1 
-0.35732822091585176 0.6426717790841481 0.0 1 
-0.3505343266737495 0.6494656733262504 0.0 1 
-0.3437404324316472 0.6562595675683527 0.0 1 
-0.3369465381895449 0.6630534618104549 0.0 1 
-0.3301526439474426 0.6698473560525573 0.0 1 
-0.3233587497053403 0.6766412502946595 0.0 1 
-0.316564855463238 0.6834351445367618 0.0 1 
-0.30977096122113573 0.6902290387788641 0.0 1 
-0.3029770669790335 0.6970229330209664 0.0 1 
-0.2961831727369311 0.7038168272630687 0.0 1 
-0.28938927849482887 0.710610721505171 0.0 1 
-0.28259538425272657 0.7174046157472733 0.0 1 X_1
-0.28259538425272657 0.7174046157472733 0.0 1 X_1
-0.28259538425272657 0.7174046157472733 0.013513513513513516 1 
-0.28259538425272657 0.7174046157472733 0.027027027027027032 1 
-0.28259538425272657 0.7174046157472733 0.04054054054054054 1 
-0.28259538425272657 0.7174046157472733 0.054054054054054064 1 
-0.28259538425272657 0.7174046157472733 0.06756756756756757 1 
-0.28259538425272657 0.7174046157472733 0.08108108108108109 1 
-0.28259538425272657 0.7174046157472733 0.09459459459459461 1 
-0.28259538425272657 0.7174046157472733 0.10810810810810813 1 
-0.28259538425272657 0.7174046157472733 0.12162162162162163 1 
-0.28259538425272657 0.7174046157472733 0.13513513513513514 1 
-0.28259538425272657 0.7174046157472733 0.14864864864864866 1 
-0.28259538425272657 0.7174046157472733 0.16216216216216217 1 
-0.28259538425272657 0.7174046157472733 0.17567567567567569 1 
-0.28259538425272657 0.7174046157472733 0.18918918918918923 1 
-0.28259538425272657 0.7174046157472733 0.20270270270270271 1 
-0.28259538425272657 0.7174046157472733 0.21621621621621626 1 
-0.28259538425272657 0.7174046157472733 0.22972972972972977 1 
-0.28259538425272657 0.7174046157472733 0.24324324324324326 1 
-0.28259538425272657 0.7174046157472733 0.25675675675675674 1 
-0.28259538425272657 0.7174046157472733 0.2702702702702703 1 
-0.28259538425272657 0.7174046157472733 0.28378378378378377 1 
-0.28259538425272657 0.7174046157472733 0.2972972972972973 1 
-0.28259538425272657 0.7174046157472733 0.3108108108108108 1 
-0.28259538425272657 0.7174046157472733 0.32432432432432434 1 
-0.28259538425272657 0.7174046157472733 0.33783783783783783 1 
-0.28259538425272657 0.7174046157472733 0.35135135135135137 1 
-0.28259538425272657 0.7174046157472733 0.36486486486486486 1 
-0.28259538425272657 0.7174046157472733 0.37837837837837845 1 
-0.28259538425272657 0.7174046157472733 0.39189189189189194 1 
-0.28259538425272657 0.7174046157472733 0.40540540540540543 1 
-0.28259538425272657 0.7174046157472733 0.4189189189189189 1 
-0.28259538425272657 0.7174046157472733 0.4324324324324325 1 
-0.28259538425272657 0.7174046157472733 0.445945945945946 1 
-0.28259538425272657 0.7174046157472733 0.45945945945945954 1 
-0.28259538425272657 0.7174046157472733 0.47297297297297297 1 
-0.28259538425272657 0.7174046157472734 0.4864864864864865 1 
-0.28259538425272657 0.7174046157472734 0.5 1 A_1
-0.28259538425272657 0.7174046157472734 0.5 1 A_1
-0.28938927849482887 0.7106107215051711 0.5 1 
-0.2961831727369311 0.7038168272630688 0.5 1 
-0.3029770669790335 0.6970229330209665 0.5 1 
-0.30977096122113573 0.6902290387788642 0.5 1 
-0.316564855463238 0.6834351445367619 0.5 1 
-0.3233587497053403 0.6766412502946596 0.5 1 
-0.3301526439474426 0.6698473560525574 0.5 1 
-0.3369465381895449 0.663053461810455 0.5 1 
-0.3437404324316472 0.6562595675683528 0.5 1 
-0.3505343266737495 0.6494656733262505 0.5 1 
-0.35732822091585176 0.6426717790841482 0.5 1 
-0.36412211515795406 0.6358778848420459 0.5 1 
-0.37091600940005637 0.6290839905999436 0.5 1 
-0.3777099036421586 0.6222900963578413 0.5 1 
-0.3845037978842609 0.615496202115739 0.5 1 
-0.39129769212636334 0.6087023078736368 0.5 1 
-0.39809158636846564 0.6019084136315346 0.5 1 
-0.40488548061056795 0.5951145193894322 0.5 1 
-0.4116793748526702 0.58832062514733 0.5 1 
-0.4184732690947725 0.5815267309052277 0.5 1 
-0.4252671633368748 0.5747328366631254 0.5 1 
-0.43206105757897706 0.567938942421023 0.5 1 
-0.43885495182107936 0.5611450481789207 0.5 1 
-0.44564884606318167 0.5543511539368184 0.5 1 
-0.452442740305284 0.5475572596947161 0.5 1 
-0.4592366345473863 0.5407633654526138 0.5 1 
-0.46603052878948853 0.5339694712105115 0.5 1 
-0.47282442303159083 0.5271755769684093 0.5 1 
-0.4796183172736931 0.520381682726307 0.5 1 
-0.48641221151579545 0.5135877884842047 0.5 1 
-0.4932061057578977 0.5067938942421024 0.5 1 
-0.5 0.5000000000000001 0.5 1 T
-0.5 0.5000000000000001 0.5 1 T
-0.5 0.5000000000000001 0.4864864864864865 1 
-0.5 0.5 0.47297297297297297 1 
-0.5 0.5 0.4594594594594595 1 
-0.5 0.5 0.445945945945946 1 
-0.5 0.5 0.4324324324324325 1 
-0.5 0.5 0.4189189189189189 1 
-0.5 0.5 0.40540540540540543 1 
-0.5 0.5 0.39189189189189194 1 
-0.5 0.5 0.37837837837837845 1 
-0.5 0.5 0.36486486486486486 1 
-0.5 0.5 0.35135135135135137 1 
-0.5 0.5 0.3378378378378379 1 
-0.5 0.5 0.32432432432432434 1 
-0.5 0.5 0.3108108108108108 1 
-0.5 0.5 0.2972972972972973 1 
-0.5 0.5 0.28378378378378377 1 
-0.5 0.5 0.27027027027027023 1 
-0.5 0.5 0.25675675675675674 1 
-0.5 0.5 0.24324324324324326 1 
-0.5 0.5 0.22972972972972974 1 
-0.5 0.5 0.21621621621621626 1 
-0.5 0.5 0.20270270270270271 1 
-0.5 0.5 0.18918918918918923 1 
-0.5 0.5 0.17567567567567569 1 
-0.5 0.5 0.1621621621621622 1 
-0.5 0.5 0.14864864864864866 1 
-0.5 0.5 0.13513513513513517 1 
-0.5 0.5 0.1216216216216216 1 
-0.5 0.5 0.1081081081081081 1 
-0.5 0.5 0.09459459459459461 1 
-0.5 0.5 0.08108108108108111 1 
-0.5 0.5 0.06756756756756754 1 
-0.5 0.5 0.05405405405405405 1 
-0.5 0.5 0.04054054054054048 1 
-0.5 0.5 0.027027027027027063 1 
-0.5 0.5 0.013513513513513493 1 
-0.5 0.5 0.0 1 Y
6.162975822039155e-33 1.232595164407831e-32 0.5 1 Z
-0.018518518518518517 0.01851851851851852 0.5 1 
-0.037037037037037035 0.037037037037037035 0.5 1 
-0.055555555555555546 0.055555555555555546 0.5 1 
-0.07407407407407408 0.07407407407407408 0.5 1 
-0.09259259259259259 0.09259259259259259 0.5 1 
-0.1111111111111111 0.1111111111111111 0.5 1 
-0.12962962962962962 0.1296296296296296 0.5 1 
-0.14814814814814814 0.1481481481481481 0.5 1 
-0.16666666666666666 0.16666666666666663 0.5 1 
-0.18518518518518517 0.18518518518518515 0.5 1 
-0.2037037037037037 0.20370370370370366 0.5 1 
-0.2222222222222222 0.22222222222222218 0.5 1 
-0.24074074074074076 0.24074074074074073 0.5 1 
-0.2592592592592592 0.25925925925925924 0.5 1 
-0.27777777777777773 0.2777777777777778 0.5 1 
-0.2962962962962962 0.2962962962962963 0.5 1 
-0.31481481481481477 0.3148148148148148 0.5 1 
-0.33333333333333326 0.3333333333333333 0.5 1 
-0.3518518518518518 0.35185185185185186 0.5 1 
-0.3703703703703703 0.37037037037037035 0.5 1 
-0.38888888888888884 0.3888888888888889 0.5 1 
-0.40740740740740733 0.4074074074074074 0.5 1 
-0.4259259259259259 0.42592592592592593 0.5 1 
-0.44444444444444436 0.4444444444444444 0.5 1 
-0.4629629629629629 0.46296296296296297 0.5 1 
-0.4814814814814815 0.48148148148148157 0.5 1 
-0.5 0.5000000000000001 0.5 1 T
