Sn2 Se2
1.0
2.13671296000 -5.91749822000 -0.00000000000
2.13671296000 5.91749822000 0.00000000000
0.00000000000 0.00000000000 4.25106507000
Sn Se
2 2
direct
0.37491111000 0.62508889000 0.25000000000 Sn
0.62508889000 0.37491111000 0.75000000000 Sn
0.14355042000 0.85644958000 0.25000000000 Se
0.85644958000 0.14355042000 0.75000000000 Se
