Te4 Pb4
1.0
6.56862397052 0.00000000000 0.00000000000
0.00000000000 6.56862397052 0.00000000000
0.00000000000 0.00000000000 6.56862397052
Te Pb
4 4
direct
0.00000000000 0.00000000000 0.00000000000 Te
0.00000000000 0.50000000000 0.50000000000 Te
0.50000000000 0.00000000000 0.50000000000 Te
0.50000000000 0.50000000000 0.00000000000 Te
0.50000000000 0.00000000000 0.00000000000 Pb
0.50000000000 0.50000000000 0.50000000000 Pb
0.00000000000 0.00000000000 0.50000000000 Pb
0.00000000000 0.50000000000 0.00000000000 Pb
