ADDGRID = .TRUE.
ALGO = A
EDIFF = 1e-07
ENCUT = 600
ICHARG = 11
ISMEAR = 0
ISTART = 1
LPLANE = .TRUE.
LREAL = .FALSE.
NBANDS = 48
LMAXMIX = 4
NPAR = 4
PREC = Accurate
SIGMA = 0.01
SYSTEM = SnSe
IVDW = 11
LCHARG = False
LWAVE = False
