Non SCF run along symmetry lines
392
Reciprocal
0.0 0.0 0.0 1 \Gamma
0.006730048110390836 0.006730048110390835 0.0 1 
0.013460096220781672 0.01346009622078167 0.0 1 
0.020190144331172506 0.020190144331172506 0.0 1 
0.026920192441563344 0.02692019244156334 0.0 1 
0.033650240551954175 0.03365024055195418 0.0 1 
0.04038028866234501 0.04038028866234501 0.0 1 
0.04711033677273584 0.04711033677273585 0.0 1 
0.05384038488312669 0.05384038488312668 0.0 1 
0.06057043299351752 0.06057043299351752 0.0 1 
0.06730048110390835 0.06730048110390836 0.0 1 
0.07403052921429919 0.0740305292142992 0.0 1 
0.08076057732469002 0.08076057732469002 0.0 1 
0.08749062543508086 0.08749062543508086 0.0 1 
0.09422067354547169 0.0942206735454717 0.0 1 
0.10095072165586252 0.10095072165586254 0.0 1 
0.10768076976625338 0.10768076976625336 0.0 1 
0.1144108178766442 0.1144108178766442 0.0 1 
0.12114086598703504 0.12114086598703504 0.0 1 
0.12787091409742588 0.12787091409742588 0.0 1 
0.1346009622078167 0.13460096220781673 0.0 1 
0.14133101031820752 0.14133101031820755 0.0 1 
0.14806105842859837 0.1480610584285984 0.0 1 
0.15479110653898925 0.15479110653898923 0.0 1 
0.16152115464938005 0.16152115464938005 0.0 1 
0.1682512027597709 0.1682512027597709 0.0 1 
0.17498125087016173 0.17498125087016173 0.0 1 
0.18171129898055255 0.18171129898055258 0.0 1 
0.18844134709094337 0.1884413470909434 0.0 1 
0.19517139520133422 0.19517139520133425 0.0 1 
0.20190144331172505 0.20190144331172508 0.0 1 
0.20863149142211587 0.20863149142211593 0.0 1 
0.21536153953250675 0.21536153953250672 0.0 1 
0.22209158764289758 0.22209158764289758 0.0 1 
0.2288216357532884 0.2288216357532884 0.0 1 
0.23555168386367925 0.23555168386367925 0.0 1 
0.24228173197407007 0.24228173197407007 0.0 1 
0.2490117800844609 0.24901178008446093 0.0 1 
0.25574182819485175 0.25574182819485175 0.0 1 
0.26247187630524255 0.2624718763052426 0.0 1 
0.2692019244156334 0.26920192441563345 0.0 1 
0.27593197252602425 0.2759319725260243 0.0 1 
0.28266202063641505 0.2826620206364151 0.0 1 X
0.28266202063641505 0.2826620206364151 0.0 1 X
0.26381788592732075 0.29715121926065413 0.0 1 
0.2449737512182264 0.3116404178848931 0.0 1 
0.22612961650913205 0.3261296165091321 0.0 1 
0.20728548180003775 0.3406188151333711 0.0 1 
0.1884413470909434 0.3551080137576101 0.0 1 
0.16959721238184905 0.36959721238184906 0.0 1 
0.15075307767275467 0.38408641100608804 0.0 1 
0.13190894296366037 0.39857560963032707 0.0 1 
0.11306480825456604 0.413064808254566 0.0 1 
0.09422067354547169 0.427554006878805 0.0 1 
0.07537653883637734 0.442043205503044 0.0 1 
0.05653240412728302 0.456532404127283 0.0 1 
0.03768826941818865 0.47102160275152205 0.0 1 
0.0188441347090943 0.485510801375761 0.0 1 
-1.6980020382691195e-17 0.5 0.0 1 S
-1.6980020382691195e-17 0.5 0.0 1 S
-1.7714995566064106e-17 0.5 0.013513513513513513 1 
-1.8449970749437013e-17 0.5 0.027027027027027025 1 
-1.9184945932809924e-17 0.5 0.04054054054054054 1 
-1.9919921116182832e-17 0.5 0.05405405405405405 1 
-2.0654896299555743e-17 0.5 0.06756756756756757 1 
-2.138987148292865e-17 0.5 0.08108108108108109 1 
-2.2124846666301562e-17 0.5 0.0945945945945946 1 
-2.285982184967447e-17 0.5 0.1081081081081081 1 
-2.359479703304738e-17 0.5 0.12162162162162163 1 
-2.4329772216420288e-17 0.5 0.13513513513513514 1 
-2.50647473997932e-17 0.5 0.14864864864864866 1 
-2.5799722583166107e-17 0.5 0.16216216216216217 1 
-2.6534697766539018e-17 0.5 0.17567567567567569 1 
-2.7269672949911928e-17 0.5 0.1891891891891892 1 
-2.8004648133284833e-17 0.5 0.2027027027027027 1 
-2.8739623316657744e-17 0.5 0.2162162162162162 1 
-2.9474598500030655e-17 0.5 0.22972972972972974 1 
-3.0209573683403566e-17 0.5 0.24324324324324326 1 
2.1253383856663542e-17 0.5 0.25675675675675674 1 
2.0518408673290628e-17 0.5 0.2702702702702703 1 
1.978343348991772e-17 0.5 0.28378378378378377 1 
1.9048458306544812e-17 0.5 0.2972972972972973 1 
1.8313483123171905e-17 0.5 0.3108108108108108 1 
1.7578507939798994e-17 0.5 0.32432432432432434 1 
1.6843532756426086e-17 0.5 0.33783783783783783 1 
1.6108557573053172e-17 0.5 0.35135135135135137 1 
1.5373582389680264e-17 0.5 0.36486486486486486 1 
1.4638607206307353e-17 0.5 0.3783783783783784 1 
1.3903632022934446e-17 0.5 0.3918918918918919 1 
1.3168656839561538e-17 0.5 0.4054054054054054 1 
1.2433681656188627e-17 0.5 0.4189189189189189 1 
1.1698706472815719e-17 0.5 0.4324324324324324 1 
1.0963731289442811e-17 0.5 0.4459459459459459 1 
1.0228756106069899e-17 0.5 0.4594594594594595 1 
9.493780922696991e-18 0.5 0.4729729729729729 1 
8.75880573932408e-18 0.5 0.4864864864864865 1 
8.023830555951172e-18 0.5 0.5 1 R
8.023830555951172e-18 0.5 0.5 1 R
0.0188441347090943 0.485510801375761 0.5 1 
0.037688269418188675 0.47102160275152205 0.5 1 
0.05653240412728302 0.456532404127283 0.5 1 
0.07537653883637734 0.44204320550304405 0.5 1 
0.09422067354547166 0.42755400687880507 0.5 1 
0.11306480825456602 0.41306480825456604 0.5 1 
0.1319089429636604 0.39857560963032707 0.5 1 
0.1507530776727547 0.3840864110060881 0.5 1 
0.16959721238184905 0.3695972123818491 0.5 1 
0.1884413470909434 0.35510801375761014 0.5 1 
0.20728548180003772 0.34061881513337117 0.5 1 
0.22612961650913205 0.3261296165091321 0.5 1 
0.24497375121822643 0.3116404178848931 0.5 1 
0.2638178859273208 0.29715121926065413 0.5 1 
0.2826620206364151 0.2826620206364151 0.5 1 A
0.2826620206364151 0.2826620206364151 0.5 1 A
0.2759319725260243 0.2759319725260243 0.5 1 
0.26920192441563345 0.26920192441563345 0.5 1 
0.2624718763052426 0.2624718763052426 0.5 1 
0.2557418281948518 0.25574182819485175 0.5 1 
0.24901178008446093 0.24901178008446093 0.5 1 
0.2422817319740701 0.24228173197407007 0.5 1 
0.23555168386367925 0.23555168386367928 0.5 1 
0.2288216357532884 0.22882163575328843 0.5 1 
0.22209158764289758 0.2220915876428976 0.5 1 
0.21536153953250675 0.21536153953250675 0.5 1 
0.2086314914221159 0.20863149142211593 0.5 1 
0.20190144331172508 0.20190144331172508 0.5 1 
0.19517139520133425 0.19517139520133425 0.5 1 
0.1884413470909434 0.1884413470909434 0.5 1 
0.18171129898055258 0.18171129898055258 0.5 1 
0.17498125087016173 0.17498125087016175 0.5 1 
0.1682512027597709 0.16825120275977093 0.5 1 
0.16152115464938005 0.16152115464938008 0.5 1 
0.15479110653898923 0.15479110653898923 0.5 1 
0.1480610584285984 0.1480610584285984 0.5 1 
0.14133101031820755 0.14133101031820755 0.5 1 
0.13460096220781673 0.13460096220781673 0.5 1 
0.12787091409742588 0.12787091409742588 0.5 1 
0.12114086598703505 0.12114086598703505 0.5 1 
0.11441081787664421 0.11441081787664421 0.5 1 
0.10768076976625339 0.10768076976625338 0.5 1 
0.10095072165586254 0.10095072165586255 0.5 1 
0.0942206735454717 0.09422067354547171 0.5 1 
0.08749062543508088 0.08749062543508088 0.5 1 
0.08076057732469004 0.08076057732469004 0.5 1 
0.07403052921429921 0.0740305292142992 0.5 1 
0.06730048110390836 0.06730048110390838 0.5 1 
0.06057043299351753 0.06057043299351753 0.5 1 
0.0538403848831267 0.053840384883126695 0.5 1 
0.04711033677273586 0.047110336772735864 0.5 1 
0.040380288662345026 0.040380288662345026 0.5 1 
0.03365024055195419 0.033650240551954196 0.5 1 
0.026920192441563358 0.026920192441563358 0.5 1 
0.02019014433117252 0.020190144331172524 0.5 1 
0.013460096220781686 0.013460096220781686 0.5 1 
0.006730048110390852 0.006730048110390851 0.5 1 
1.5393340394568255e-17 1.5393340394568268e-17 0.5 1 Z
-2.122584095866262e-33 8.718147596483944e-34 0.5 1 Z
-2.2209193955032158e-33 5.0427447500087015e-33 0.4864864864864865 1 
4.8440847212651375e-33 -5.6522558226583554e-33 0.4729729729729729 1 
-1.417226400410971e-33 4.6816499897411065e-33 0.4594594594594595 1 
-5.1519810568177245e-34 1.4962523911320434e-34 0.4459459459459459 1 
-6.135334053187263e-34 4.3205552294735115e-33 0.4324324324324324 1 
-7.118687049556802e-34 2.328509397794664e-33 0.4189189189189189 1 
1.9015958977351842e-34 -2.2035153528332383e-33 0.4054054054054054 1 
-2.9896636208830128e-33 1.967414637527069e-33 0.3918918918918919 1 
4.0753404958853405e-33 -2.5646101131008333e-33 0.37837837837837834 1 
8.955172852288093e-34 1.6063198772594738e-33 0.36486486486486486 1 
1.797545579958008e-33 -2.9257048733684283e-33 0.3513513513513513 1 
1.699210280321054e-33 -4.917750705047276e-33 0.33783783783783783 1 
-2.5211750886621896e-33 1.0646777368580813e-33 0.3243243243243243 1 
-5.785846356062786e-34 -5.278845465314871e-33 0.3108108108108108 1 
-6.7691993524323245e-34 -1.1079154749545638e-33 0.2972972972972973 1 
1.2656705178126786e-33 4.8745129669507934e-33 0.28378378378378377 1 
1.2677305984901228e-34 -1.4690102352221589e-33 0.27027027027027023 1 
-1.012124398114654e-33 4.5134182066831984e-33 0.25675675675675674 1 
4.302842577581808e-34 -3.641603447034804e-33 0.24324324324324326 1 
-2.084314030224093e-34 1.070835535396026e-33 0.2297297297297297 1 
1.2339772528504255e-33 -9.212102962828216e-34 0.2162162162162162 1 
1.635823750396548e-33 1.9797302346029582e-33 0.2027027027027027 1 
-1.5439994602599833e-33 -1.2315597075889374e-35 0.1891891891891892 1 
8.98772789979004e-34 -1.4628524366842142e-33 0.17567567567567566 1 
3.8819254013616275e-33 -3.454898268363062e-33 0.16216216216216217 1 
-1.3790221259483287e-33 1.2575407140677682e-33 0.1486486486486486 1 
-1.4773574255852825e-33 -7.345051176110794e-34 0.13513513513513511 1 
1.950428468988104e-34 -5.2665298682389816e-33 0.12162162162162157 1 
3.178195458281434e-33 -4.177087788898252e-33 0.10810810810810809 1 
7.68744225379797e-34 1.534586156971844e-33 0.0945945945945946 1 
-6.403434131556874e-34 -2.997438593656058e-33 0.08108108108108104 1 
-1.5090506905475356e-33 4.254979307723826e-33 0.06756756756756756 1 
-4.5182802355214795e-34 2.2629334760449787e-33 0.05405405405405408 1 
8.353862600544978e-34 -7.283473190731347e-34 0.04054054054054052 1 
-4.077773900550546e-33 3.0573966824097252e-33 0.02702702702702704 1 
-8.64629672556664e-34 2.1846388261175712e-33 0.013513513513513483 1 
0.0 0.0 0.0 1 \Gamma
0.0 0.0 0.0 1 \Gamma
-0.018518518518518517 0.018518518518518517 0.0 1 
-0.037037037037037035 0.037037037037037035 0.0 1 
-0.05555555555555555 0.05555555555555555 0.0 1 
-0.07407407407407407 0.07407407407407407 0.0 1 
-0.0925925925925926 0.0925925925925926 0.0 1 
-0.1111111111111111 0.1111111111111111 0.0 1 
-0.12962962962962962 0.12962962962962962 0.0 1 
-0.14814814814814814 0.14814814814814814 0.0 1 
-0.16666666666666666 0.16666666666666666 0.0 1 
-0.1851851851851852 0.1851851851851852 0.0 1 
-0.20370370370370372 0.20370370370370372 0.0 1 
-0.2222222222222222 0.2222222222222222 0.0 1 
-0.24074074074074073 0.24074074074074073 0.0 1 
-0.25925925925925924 0.25925925925925924 0.0 1 
-0.2777777777777778 0.2777777777777778 0.0 1 
-0.2962962962962963 0.2962962962962963 0.0 1 
-0.3148148148148148 0.3148148148148148 0.0 1 
-0.3333333333333333 0.3333333333333333 0.0 1 
-0.35185185185185186 0.35185185185185186 0.0 1 
-0.3703703703703704 0.3703703703703704 0.0 1 
-0.38888888888888895 0.38888888888888895 0.0 1 
-0.40740740740740744 0.40740740740740744 0.0 1 
-0.42592592592592593 0.42592592592592593 0.0 1 
-0.4444444444444444 0.4444444444444444 0.0 1 
-0.46296296296296297 0.46296296296296297 0.0 1 
-0.48148148148148145 0.48148148148148145 0.0 1 
-0.5 0.5 0.0 1 Y
-0.5 0.5 0.0 1 Y
-0.493208188144888 0.506791811855112 0.0 1 
-0.48641637628977596 0.513583623710224 0.0 1 
-0.47962456443466395 0.5203754355653362 0.0 1 
-0.47283275257955193 0.5271672474204482 0.0 1 
-0.4660409407244399 0.5339590592755602 0.0 1 
-0.4592491288693279 0.5407508711306722 0.0 1 
-0.4524573170142158 0.5475426829857842 0.0 1 
-0.4456655051591038 0.5543344948408963 0.0 1 
-0.4388736933039918 0.5611263066960083 0.0 1 
-0.43208188144887977 0.5679181185511203 0.0 1 
-0.42529006959376775 0.5747099304062324 0.0 1 
-0.41849825773865573 0.5815017422613444 0.0 1 
-0.4117064458835437 0.5882935541164565 0.0 1 
-0.4049146340284317 0.5950853659715685 0.0 1 
-0.3981228221733196 0.6018771778266805 0.0 1 
-0.3913310103182076 0.6086689896817925 0.0 1 
-0.3845391984630955 0.6154608015369044 0.0 1 
-0.37774738660798346 0.6222526133920164 0.0 1 
-0.37095557475287144 0.6290444252471286 0.0 1 
-0.3641637628977594 0.6358362371022406 0.0 1 
-0.35737195104264735 0.6426280489573526 0.0 1 
-0.35058013918753533 0.6494198608124646 0.0 1 
-0.3437883273324233 0.6562116726675766 0.0 1 
-0.3369965154773113 0.6630034845226886 0.0 1 
-0.3302047036221993 0.6697952963778007 0.0 1 
-0.32341289176708726 0.6765871082329127 0.0 1 
-0.31662107991197525 0.6833789200880247 0.0 1 
-0.3098292680568632 0.6901707319431368 0.0 1 
-0.30303745620175115 0.6969625437982488 0.0 1 
-0.29624564434663914 0.7037543556533609 0.0 1 
-0.2894538324915271 0.7105461675084729 0.0 1 
-0.2826620206364151 0.7173379793635849 0.0 1 X_1
-0.2826620206364151 0.7173379793635849 0.0 1 X_1
-0.2826620206364151 0.7173379793635849 0.013513513513513513 1 
-0.2826620206364151 0.7173379793635849 0.027027027027027025 1 
-0.2826620206364151 0.7173379793635849 0.04054054054054054 1 
-0.2826620206364151 0.7173379793635849 0.05405405405405405 1 
-0.2826620206364151 0.7173379793635849 0.06756756756756757 1 
-0.2826620206364151 0.7173379793635849 0.08108108108108109 1 
-0.2826620206364151 0.7173379793635849 0.0945945945945946 1 
-0.2826620206364151 0.7173379793635849 0.1081081081081081 1 
-0.2826620206364151 0.7173379793635849 0.12162162162162163 1 
-0.2826620206364151 0.7173379793635849 0.13513513513513514 1 
-0.2826620206364151 0.7173379793635849 0.14864864864864866 1 
-0.2826620206364151 0.7173379793635849 0.16216216216216217 1 
-0.2826620206364151 0.7173379793635849 0.17567567567567569 1 
-0.2826620206364151 0.7173379793635849 0.1891891891891892 1 
-0.2826620206364151 0.7173379793635849 0.2027027027027027 1 
-0.2826620206364151 0.7173379793635849 0.2162162162162162 1 
-0.2826620206364151 0.7173379793635849 0.22972972972972974 1 
-0.2826620206364151 0.7173379793635849 0.24324324324324326 1 
-0.2826620206364151 0.7173379793635849 0.25675675675675674 1 
-0.2826620206364151 0.7173379793635849 0.2702702702702703 1 
-0.2826620206364151 0.7173379793635849 0.28378378378378377 1 
-0.2826620206364151 0.7173379793635849 0.2972972972972973 1 
-0.2826620206364151 0.7173379793635849 0.3108108108108108 1 
-0.2826620206364151 0.7173379793635849 0.32432432432432434 1 
-0.2826620206364151 0.7173379793635849 0.33783783783783783 1 
-0.2826620206364151 0.7173379793635849 0.35135135135135137 1 
-0.2826620206364151 0.7173379793635849 0.36486486486486486 1 
-0.2826620206364151 0.7173379793635849 0.3783783783783784 1 
-0.2826620206364151 0.7173379793635849 0.3918918918918919 1 
-0.2826620206364151 0.7173379793635849 0.4054054054054054 1 
-0.2826620206364151 0.7173379793635849 0.4189189189189189 1 
-0.2826620206364151 0.7173379793635849 0.4324324324324324 1 
-0.2826620206364151 0.7173379793635849 0.4459459459459459 1 
-0.2826620206364151 0.7173379793635849 0.4594594594594595 1 
-0.2826620206364151 0.7173379793635849 0.4729729729729729 1 
-0.2826620206364151 0.717337979363585 0.4864864864864865 1 
-0.2826620206364151 0.717337979363585 0.5 1 A_1
-0.2826620206364151 0.717337979363585 0.5 1 A_1
-0.2894538324915271 0.710546167508473 0.5 1 
-0.29624564434663914 0.703754355653361 0.5 1 
-0.30303745620175115 0.696962543798249 0.5 1 
-0.3098292680568632 0.6901707319431369 0.5 1 
-0.31662107991197525 0.6833789200880248 0.5 1 
-0.32341289176708726 0.6765871082329128 0.5 1 
-0.3302047036221993 0.6697952963778008 0.5 1 
-0.3369965154773113 0.6630034845226888 0.5 1 
-0.3437883273324233 0.6562116726675767 0.5 1 
-0.35058013918753533 0.6494198608124647 0.5 1 
-0.35737195104264735 0.6426280489573527 0.5 1 
-0.3641637628977594 0.6358362371022407 0.5 1 
-0.37095557475287144 0.6290444252471287 0.5 1 
-0.37774738660798346 0.6222526133920165 0.5 1 
-0.3845391984630955 0.6154608015369045 0.5 1 
-0.3913310103182076 0.6086689896817926 0.5 1 
-0.3981228221733196 0.6018771778266806 0.5 1 
-0.4049146340284317 0.5950853659715686 0.5 1 
-0.4117064458835437 0.5882935541164566 0.5 1 
-0.41849825773865573 0.5815017422613445 0.5 1 
-0.42529006959376775 0.5747099304062325 0.5 1 
-0.43208188144887977 0.5679181185511204 0.5 1 
-0.4388736933039918 0.5611263066960084 0.5 1 
-0.4456655051591038 0.5543344948408964 0.5 1 
-0.4524573170142158 0.5475426829857843 0.5 1 
-0.4592491288693279 0.5407508711306723 0.5 1 
-0.46604094072443986 0.5339590592755603 0.5 1 
-0.47283275257955193 0.5271672474204483 0.5 1 
-0.47962456443466395 0.5203754355653362 0.5 1 
-0.48641637628977596 0.5135836237102241 0.5 1 
-0.493208188144888 0.5067918118551121 0.5 1 
-0.5 0.5000000000000001 0.5 1 T
-0.5 0.5000000000000001 0.5 1 T
-0.5 0.5000000000000001 0.4864864864864865 1 
-0.5 0.5 0.4729729729729729 1 
-0.5 0.5 0.4594594594594595 1 
-0.5 0.5 0.4459459459459459 1 
-0.5 0.5 0.4324324324324324 1 
-0.5 0.5 0.4189189189189189 1 
-0.5 0.5 0.4054054054054054 1 
-0.5 0.5 0.3918918918918919 1 
-0.5 0.5 0.37837837837837834 1 
-0.5 0.5 0.36486486486486486 1 
-0.5 0.5 0.3513513513513513 1 
-0.5 0.5 0.33783783783783783 1 
-0.5 0.5 0.3243243243243243 1 
-0.5 0.5 0.3108108108108108 1 
-0.5 0.5 0.2972972972972973 1 
-0.5 0.5 0.28378378378378377 1 
-0.5 0.5 0.27027027027027023 1 
-0.5 0.5 0.25675675675675674 1 
-0.5 0.5 0.24324324324324326 1 
-0.5 0.5 0.2297297297297297 1 
-0.5 0.5 0.2162162162162162 1 
-0.5 0.5 0.2027027027027027 1 
-0.5 0.5 0.1891891891891892 1 
-0.5 0.5 0.17567567567567566 1 
-0.5 0.5 0.16216216216216217 1 
-0.5 0.5 0.1486486486486486 1 
-0.5 0.5 0.13513513513513511 1 
-0.5 0.5 0.12162162162162157 1 
-0.5 0.5 0.10810810810810809 1 
-0.5 0.5 0.0945945945945946 1 
-0.5 0.5 0.08108108108108104 1 
-0.5 0.5 0.06756756756756756 1 
-0.5 0.5 0.05405405405405408 1 
-0.5 0.5 0.04054054054054052 1 
-0.5 0.5 0.02702702702702704 1 
-0.5 0.5 0.013513513513513483 1 
-0.5 0.5 0.0 1 Y
-2.122584095866262e-33 8.718147596483944e-34 0.5 1 Z
-0.018518518518518517 0.018518518518518517 0.5 1 
-0.037037037037037035 0.03703703703703703 0.5 1 
-0.05555555555555555 0.055555555555555546 0.5 1 
-0.07407407407407407 0.07407407407407407 0.5 1 
-0.0925925925925926 0.0925925925925926 0.5 1 
-0.1111111111111111 0.1111111111111111 0.5 1 
-0.1296296296296296 0.1296296296296296 0.5 1 
-0.14814814814814814 0.14814814814814814 0.5 1 
-0.16666666666666666 0.16666666666666666 0.5 1 
-0.18518518518518517 0.18518518518518517 0.5 1 
-0.2037037037037037 0.2037037037037037 0.5 1 
-0.2222222222222222 0.2222222222222222 0.5 1 
-0.24074074074074073 0.24074074074074073 0.5 1 
-0.2592592592592592 0.25925925925925924 0.5 1 
-0.27777777777777773 0.2777777777777778 0.5 1 
-0.2962962962962962 0.2962962962962963 0.5 1 
-0.31481481481481477 0.3148148148148148 0.5 1 
-0.3333333333333333 0.3333333333333333 0.5 1 
-0.35185185185185186 0.35185185185185186 0.5 1 
-0.37037037037037035 0.37037037037037035 0.5 1 
-0.3888888888888889 0.3888888888888889 0.5 1 
-0.4074074074074074 0.40740740740740744 0.5 1 
-0.4259259259259259 0.42592592592592593 0.5 1 
-0.44444444444444436 0.4444444444444444 0.5 1 
-0.4629629629629629 0.46296296296296297 0.5 1 
-0.4814814814814815 0.4814814814814815 0.5 1 
-0.5 0.5000000000000001 0.5 1 T
