EMC 1.51py
61
Reciprocal
   0.3260869600    0.0000000000    0.0000000000 0.01
   0.3010131287    0.0000000000    0.0000000000 0.01
   0.3135500443    0.0000000000    0.0000000000 0.01
   0.3386238757    0.0000000000    0.0000000000 0.01
   0.3511607913    0.0000000000    0.0000000000 0.01
   0.3260869600   -0.0273069604    0.0000000000 0.01
   0.3260869600   -0.0136534802    0.0000000000 0.01
   0.3260869600    0.0136534802    0.0000000000 0.01
   0.3260869600    0.0273069604    0.0000000000 0.01
   0.3260869600    0.0000000000   -0.0695866693 0.01
   0.3260869600    0.0000000000   -0.0347933347 0.01
   0.3260869600    0.0000000000    0.0347933347 0.01
   0.3260869600    0.0000000000    0.0695866693 0.01
   0.3010131287   -0.0273069604    0.0000000000 0.01
   0.3135500443   -0.0273069604    0.0000000000 0.01
   0.3386238757   -0.0273069604    0.0000000000 0.01
   0.3511607913   -0.0273069604    0.0000000000 0.01
   0.3010131287   -0.0136534802    0.0000000000 0.01
   0.3135500443   -0.0136534802    0.0000000000 0.01
   0.3386238757   -0.0136534802    0.0000000000 0.01
   0.3511607913   -0.0136534802    0.0000000000 0.01
   0.3010131287    0.0136534802    0.0000000000 0.01
   0.3135500443    0.0136534802    0.0000000000 0.01
   0.3386238757    0.0136534802    0.0000000000 0.01
   0.3511607913    0.0136534802    0.0000000000 0.01
   0.3010131287    0.0273069604    0.0000000000 0.01
   0.3135500443    0.0273069604    0.0000000000 0.01
   0.3386238757    0.0273069604    0.0000000000 0.01
   0.3511607913    0.0273069604    0.0000000000 0.01
   0.3010131287    0.0000000000   -0.0695866693 0.01
   0.3135500443    0.0000000000   -0.0695866693 0.01
   0.3386238757    0.0000000000   -0.0695866693 0.01
   0.3511607913    0.0000000000   -0.0695866693 0.01
   0.3010131287    0.0000000000   -0.0347933347 0.01
   0.3135500443    0.0000000000   -0.0347933347 0.01
   0.3386238757    0.0000000000   -0.0347933347 0.01
   0.3511607913    0.0000000000   -0.0347933347 0.01
   0.3010131287    0.0000000000    0.0347933347 0.01
   0.3135500443    0.0000000000    0.0347933347 0.01
   0.3386238757    0.0000000000    0.0347933347 0.01
   0.3511607913    0.0000000000    0.0347933347 0.01
   0.3010131287    0.0000000000    0.0695866693 0.01
   0.3135500443    0.0000000000    0.0695866693 0.01
   0.3386238757    0.0000000000    0.0695866693 0.01
   0.3511607913    0.0000000000    0.0695866693 0.01
   0.3260869600   -0.0273069604   -0.0695866693 0.01
   0.3260869600   -0.0136534802   -0.0695866693 0.01
   0.3260869600    0.0136534802   -0.0695866693 0.01
   0.3260869600    0.0273069604   -0.0695866693 0.01
   0.3260869600   -0.0273069604   -0.0347933347 0.01
   0.3260869600   -0.0136534802   -0.0347933347 0.01
   0.3260869600    0.0136534802   -0.0347933347 0.01
   0.3260869600    0.0273069604   -0.0347933347 0.01
   0.3260869600   -0.0273069604    0.0347933347 0.01
   0.3260869600   -0.0136534802    0.0347933347 0.01
   0.3260869600    0.0136534802    0.0347933347 0.01
   0.3260869600    0.0273069604    0.0347933347 0.01
   0.3260869600   -0.0273069604    0.0695866693 0.01
   0.3260869600   -0.0136534802    0.0695866693 0.01
   0.3260869600    0.0136534802    0.0695866693 0.01
   0.3260869600    0.0273069604    0.0695866693 0.01
