EMC 1.51py
61
Reciprocal
   0.5000000000    0.5000000000    0.3875000000 0.01
   0.4385110776    0.4385110776    0.3289024636 0.01
   0.4692555388    0.4692555388    0.3582012318 0.01
   0.5307444612    0.5307444612    0.4167987682 0.01
   0.5614889224    0.5614889224    0.4460975364 0.01
   0.5133337245    0.4866662755    0.3875000000 0.01
   0.5066668622    0.4933331378    0.3875000000 0.01
   0.4933331378    0.5066668622    0.3875000000 0.01
   0.4866662755    0.5133337245    0.3875000000 0.01
   0.5000000000    0.5000000000    0.3645870231 0.01
   0.5000000000    0.5000000000    0.3760435115 0.01
   0.5000000000    0.5000000000    0.3989564885 0.01
   0.5000000000    0.5000000000    0.4104129769 0.01
   0.4518448021    0.4251773531    0.3289024636 0.01
   0.4825892633    0.4559218143    0.3582012318 0.01
   0.5440781857    0.5174107367    0.4167987682 0.01
   0.5748226469    0.5481551979    0.4460975364 0.01
   0.4451779398    0.4318442154    0.3289024636 0.01
   0.4759224010    0.4625886766    0.3582012318 0.01
   0.5374113234    0.5240775990    0.4167987682 0.01
   0.5681557846    0.5548220602    0.4460975364 0.01
   0.4318442154    0.4451779398    0.3289024636 0.01
   0.4625886766    0.4759224010    0.3582012318 0.01
   0.5240775990    0.5374113234    0.4167987682 0.01
   0.5548220602    0.5681557846    0.4460975364 0.01
   0.4251773531    0.4518448021    0.3289024636 0.01
   0.4559218143    0.4825892633    0.3582012318 0.01
   0.5174107367    0.5440781857    0.4167987682 0.01
   0.5481551979    0.5748226469    0.4460975364 0.01
   0.4385110776    0.4385110776    0.3059894867 0.01
   0.4692555388    0.4692555388    0.3352882549 0.01
   0.5307444612    0.5307444612    0.3938857912 0.01
   0.5614889224    0.5614889224    0.4231845594 0.01
   0.4385110776    0.4385110776    0.3174459751 0.01
   0.4692555388    0.4692555388    0.3467447433 0.01
   0.5307444612    0.5307444612    0.4053422797 0.01
   0.5614889224    0.5614889224    0.4346410479 0.01
   0.4385110776    0.4385110776    0.3403589521 0.01
   0.4692555388    0.4692555388    0.3696577203 0.01
   0.5307444612    0.5307444612    0.4282552567 0.01
   0.5614889224    0.5614889224    0.4575540249 0.01
   0.4385110776    0.4385110776    0.3518154406 0.01
   0.4692555388    0.4692555388    0.3811142088 0.01
   0.5307444612    0.5307444612    0.4397117451 0.01
   0.5614889224    0.5614889224    0.4690105133 0.01
   0.5133337245    0.4866662755    0.3645870231 0.01
   0.5066668622    0.4933331378    0.3645870231 0.01
   0.4933331378    0.5066668622    0.3645870231 0.01
   0.4866662755    0.5133337245    0.3645870231 0.01
   0.5133337245    0.4866662755    0.3760435115 0.01
   0.5066668622    0.4933331378    0.3760435115 0.01
   0.4933331378    0.5066668622    0.3760435115 0.01
   0.4866662755    0.5133337245    0.3760435115 0.01
   0.5133337245    0.4866662755    0.3989564885 0.01
   0.5066668622    0.4933331378    0.3989564885 0.01
   0.4933331378    0.5066668622    0.3989564885 0.01
   0.4866662755    0.5133337245    0.3989564885 0.01
   0.5133337245    0.4866662755    0.4104129769 0.01
   0.5066668622    0.4933331378    0.4104129769 0.01
   0.4933331378    0.5066668622    0.4104129769 0.01
   0.4866662755    0.5133337245    0.4104129769 0.01
