Kpoints with grid resolution = 0.030 / A-1
0
Gamma
9 9 2
