Bi6 Te9
1.0
2.21667734183 -3.83939778004 0.00000000000
2.21667734183 3.83939778004 0.00000000000
0.00000000000 0.00000000000 30.42555831013
Bi Te
6 9
direct
0.33333333333 0.66666666667 0.06646499436 Bi
0.33333333333 0.66666666667 0.26686833898 Bi
0.00000000000 0.00000000000 0.39979832769 Bi
0.00000000000 0.00000000000 0.60020167231 Bi
0.66666666667 0.33333333333 0.73313166102 Bi
0.66666666667 0.33333333333 0.93353500564 Bi
0.00000000000 0.00000000000 0.00000000000 Te
0.00000000000 0.00000000000 0.21048582190 Te
0.66666666667 0.33333333333 0.12284751143 Te
0.66666666667 0.33333333333 0.33333333333 Te
0.66666666667 0.33333333333 0.54381915523 Te
0.33333333333 0.66666666667 0.45618084477 Te
0.33333333333 0.66666666667 0.66666666667 Te
0.33333333333 0.66666666667 0.87715248857 Te
0.00000000000 0.00000000000 0.78951417810 Te
