Non SCF run along symmetry lines
224
Reciprocal
0.0 0.0 0.0 1 \Gamma
0.021739130434782608 0.0 0.0 1 
0.043478260869565216 0.0 0.0 1 
0.06521739130434782 1.5407439555097887e-33 0.0 1 
0.08695652173913043 0.0 0.0 1 
0.10869565217391304 0.0 0.0 1 
0.13043478260869565 3.0814879110195774e-33 0.0 1 
0.15217391304347827 3.0814879110195774e-33 0.0 1 
0.17391304347826086 0.0 0.0 1 
0.1956521739130435 6.162975822039155e-33 0.0 1 
0.21739130434782608 0.0 0.0 1 
0.2391304347826087 0.0 0.0 1 
0.2608695652173913 6.162975822039155e-33 0.0 1 
0.2826086956521739 6.162975822039155e-33 0.0 1 
0.30434782608695654 6.162975822039155e-33 0.0 1 
0.32608695652173914 0.0 0.0 1 
0.34782608695652173 0.0 0.0 1 
0.3695652173913043 0.0 0.0 1 
0.391304347826087 1.232595164407831e-32 0.0 1 
0.41304347826086957 0.0 0.0 1 
0.43478260869565216 0.0 0.0 1 
0.45652173913043476 0.0 0.0 1 
0.4782608695652174 0.0 0.0 1 
0.5 0.0 0.0 1 X
0.5 0.0 0.0 1 X
0.5 0.02380952380952381 0.0 1 
0.5 0.04761904761904762 0.0 1 
0.5 0.07142857142857142 0.0 1 
0.5 0.09523809523809525 0.0 1 
0.5 0.11904761904761904 0.0 1 
0.5 0.14285714285714285 0.0 1 
0.5 0.16666666666666666 0.0 1 
0.5 0.1904761904761905 0.0 1 
0.5 0.21428571428571427 0.0 1 
0.5 0.23809523809523808 0.0 1 
0.5 0.261904761904762 0.0 1 
0.5 0.28571428571428575 0.0 1 
0.5 0.3095238095238096 0.0 1 
0.5 0.33333333333333337 0.0 1 
0.5 0.3571428571428572 0.0 1 
0.5 0.380952380952381 0.0 1 
0.5 0.40476190476190477 0.0 1 
0.5 0.4285714285714286 0.0 1 
0.5 0.45238095238095244 0.0 1 
0.5 0.47619047619047616 0.0 1 
0.5 0.5 0.0 1 S
0.5 0.5 0.0 1 S
0.4782608695652174 0.5 0.0 1 
0.4565217391304348 0.5 0.0 1 
0.43478260869565216 0.5 0.0 1 
0.41304347826086957 0.5 0.0 1 
0.391304347826087 0.5 0.0 1 
0.3695652173913043 0.5 0.0 1 
0.34782608695652173 0.5 0.0 1 
0.32608695652173914 0.5 0.0 1 
0.30434782608695654 0.5 0.0 1 
0.28260869565217395 0.5 0.0 1 
0.2608695652173913 0.5 0.0 1 
0.2391304347826087 0.5 0.0 1 
0.2173913043478261 0.5 0.0 1 
0.19565217391304346 0.5 0.0 1 
0.17391304347826086 0.5 0.0 1 
0.15217391304347827 0.5 0.0 1 
0.13043478260869568 0.5 0.0 1 
0.10869565217391303 0.5 0.0 1 
0.08695652173913043 0.5 0.0 1 
0.06521739130434784 0.5 0.0 1 
0.04347826086956525 0.5 0.0 1 
0.02173913043478259 0.5 0.0 1 
0.0 0.5 0.0 1 Y
0.0 0.5 0.0 1 Y
0.0 0.4761904761904762 0.0 1 
0.0 0.45238095238095244 0.0 1 
0.0 0.42857142857142866 0.0 1 
0.0 0.40476190476190477 0.0 1 
0.0 0.380952380952381 0.0 1 
0.0 0.35714285714285715 0.0 1 
0.0 0.33333333333333337 0.0 1 
0.0 0.30952380952380953 0.0 1 
0.0 0.28571428571428575 0.0 1 
0.0 0.261904761904762 0.0 1 
0.0 0.23809523809523808 0.0 1 
0.0 0.21428571428571433 0.0 1 
0.0 0.1904761904761905 0.0 1 
0.0 0.16666666666666669 0.0 1 
0.0 0.14285714285714285 0.0 1 
0.0 0.11904761904761905 0.0 1 
0.0 0.09523809523809526 0.0 1 
0.0 0.07142857142857147 0.0 1 
0.0 0.04761904761904759 0.0 1 
0.0 0.023809523809523874 0.0 1 
0.0 0.0 0.0 1 \Gamma
0.0 0.0 0.0 1 \Gamma
0.0 0.0 0.05555555555555555 1 
0.0 0.0 0.1111111111111111 1 
0.0 0.0 0.16666666666666666 1 
0.0 0.0 0.2222222222222222 1 
0.0 1.5407439555097887e-33 0.2777777777777778 1 
0.0 0.0 0.3333333333333333 1 
-1.5407439555097887e-33 0.0 0.3888888888888889 1 
0.0 0.0 0.4444444444444444 1 
0.0 1.5407439555097887e-33 0.5 1 Z
0.0 1.5407439555097887e-33 0.5 1 Z
0.021739130434782608 1.5407439555097887e-33 0.5 1 
0.04347826086956522 -1.5407439555097887e-33 0.5 1 
0.06521739130434782 1.5407439555097887e-33 0.5 1 
0.08695652173913043 0.0 0.5 1 
0.10869565217391304 0.0 0.5 1 
0.13043478260869562 3.0814879110195774e-33 0.5 1 
0.15217391304347827 3.0814879110195774e-33 0.5 1 
0.17391304347826086 6.162975822039155e-33 0.5 1 
0.1956521739130435 6.162975822039155e-33 0.5 1 
0.21739130434782608 6.162975822039155e-33 0.5 1 
0.2391304347826087 0.0 0.5 1 
0.2608695652173913 6.162975822039155e-33 0.5 1 
0.2826086956521739 0.0 0.5 1 
0.30434782608695654 6.162975822039155e-33 0.5 1 
0.32608695652173914 -6.162975822039155e-33 0.5 1 
0.34782608695652173 -6.162975822039155e-33 0.5 1 
0.3695652173913043 6.162975822039155e-33 0.5 1 
0.391304347826087 1.8488927466117464e-32 0.5 1 
0.41304347826086957 -6.162975822039155e-33 0.5 1 
0.43478260869565216 6.162975822039155e-33 0.5 1 
0.45652173913043476 6.162975822039155e-33 0.5 1 
0.4782608695652174 6.162975822039155e-33 0.5 1 
0.5 6.162975822039155e-33 0.5 1 U
0.5 6.162975822039155e-33 0.5 1 U
0.5 0.023809523809523808 0.5 1 
0.5 0.04761904761904762 0.5 1 
0.5 0.07142857142857142 0.5 1 
0.5 0.09523809523809523 0.5 1 
0.5 0.11904761904761903 0.5 1 
0.5 0.14285714285714285 0.5 1 
0.5 0.16666666666666666 0.5 1 
0.5 0.1904761904761905 0.5 1 
0.5 0.21428571428571427 0.5 1 
0.5 0.23809523809523808 0.5 1 
0.5 0.261904761904762 0.5 1 
0.5 0.28571428571428575 0.5 1 
0.5 0.3095238095238096 0.5 1 
0.5 0.33333333333333337 0.5 1 
0.5 0.3571428571428572 0.5 1 
0.5 0.380952380952381 0.5 1 
0.5 0.40476190476190477 0.5 1 
0.5 0.4285714285714286 0.5 1 
0.5 0.45238095238095244 0.5 1 
0.5 0.47619047619047616 0.5 1 
0.5 0.5 0.5 1 R
0.5 0.5 0.5 1 R
0.4782608695652174 0.5 0.5 1 
0.4565217391304348 0.5 0.5 1 
0.43478260869565216 0.5 0.5 1 
0.41304347826086957 0.5 0.5 1 
0.391304347826087 0.5 0.5 1 
0.3695652173913043 0.5 0.5 1 
0.34782608695652173 0.5 0.5 1 
0.32608695652173914 0.5 0.5 1 
0.30434782608695654 0.5 0.5 1 
0.28260869565217395 0.5 0.5 1 
0.2608695652173913 0.5 0.5 1 
0.2391304347826087 0.5 0.5 1 
0.2173913043478261 0.5 0.5 1 
0.19565217391304346 0.5 0.5 1 
0.17391304347826086 0.5 0.5 1 
0.15217391304347827 0.5 0.5 1 
0.13043478260869568 0.5 0.5 1 
0.10869565217391304 0.5 0.5 1 
0.08695652173913045 0.5 0.5 1 
0.06521739130434785 0.5 0.5 1 
0.043478260869565265 0.5 0.5 1 
0.0217391304347826 0.5 0.5 1 
1.1025419540598046e-17 0.5 0.5 1 T
0.0 0.5 0.5 1 T
0.0 0.4761904761904762 0.5 1 
0.0 0.45238095238095244 0.5 1 
0.0 0.42857142857142866 0.5 1 
0.0 0.40476190476190477 0.5 1 
0.0 0.380952380952381 0.5 1 
0.0 0.35714285714285715 0.5 1 
0.0 0.33333333333333337 0.5 1 
0.0 0.30952380952380953 0.5 1 
0.0 0.28571428571428575 0.5 1 
0.0 0.261904761904762 0.5 1 
0.0 0.23809523809523808 0.5 1 
0.0 0.21428571428571433 0.5 1 
0.0 0.1904761904761905 0.5 1 
0.0 0.16666666666666669 0.5 1 
0.0 0.14285714285714285 0.5 1 
0.0 0.11904761904761907 0.5 1 
0.0 0.09523809523809527 0.5 1 
0.0 0.07142857142857148 0.5 1 
0.0 0.0476190476190476 0.5 1 
0.0 0.023809523809523885 0.5 1 
0.0 1.2019629077344544e-17 0.5 1 Z
0.0 0.5 0.0 1 Y
0.0 0.5 0.05555555555555555 1 
0.0 0.5 0.1111111111111111 1 
0.0 0.5 0.16666666666666666 1 
0.0 0.5 0.2222222222222222 1 
0.0 0.5 0.2777777777777778 1 
0.0 0.5 0.3333333333333333 1 
-1.5407439555097887e-33 0.5 0.3888888888888889 1 
0.0 0.5 0.4444444444444444 1 
0.0 0.5 0.5 1 T
0.5 6.162975822039155e-33 0.5 1 U
0.5 -4.622231866529366e-33 0.4444444444444444 1 
0.5 -1.5407439555097887e-33 0.3888888888888889 1 
0.5 1.5407439555097887e-33 0.33333333333333337 1 
0.5 -1.0785207688568521e-32 0.27777777777777773 1 
0.5 3.851859888774472e-33 0.22222222222222218 1 
0.5 6.933347799794049e-33 0.16666666666666669 1 
0.5 8.474091755303838e-33 0.11111111111111112 1 
0.5 -1.925929944387236e-33 0.05555555555555556 1 
0.5 0.0 0.0 1 X
0.5 0.5 0.0 1 S
0.5 0.5 0.05555555555555555 1 
0.5 0.5 0.1111111111111111 1 
0.5 0.5 0.16666666666666666 1 
0.5 0.5 0.2222222222222222 1 
0.5 0.5 0.2777777777777778 1 
0.5 0.5 0.3333333333333333 1 
0.5 0.5 0.3888888888888889 1 
0.5 0.5 0.4444444444444444 1 
0.5 0.5 0.5 1 R
