Sn4 Se4
1.0
4.17036974000 0.00000000000 0.00000000000
0.00000000000 4.54642993000 0.00000000000
0.00000000000 0.00000000000 11.58057962000
Sn Se
4 4
direct
0.25000000000 0.11267971000 0.11682412000 Sn
0.75000000000 0.88732029000 0.88317588000 Sn
0.75000000000 0.61267971000 0.38317588000 Sn
0.25000000000 0.38732029000 0.61682412000 Sn
0.75000000000 0.51878540000 0.14519304000 Se
0.25000000000 0.48121460000 0.85480696000 Se
0.25000000000 0.01878540000 0.35480696000 Se
0.75000000000 0.98121460000 0.64519304000 Se
