Kpoints with grid resolution = 0.020 / A-1
0
Gamma
13 13 13
