Te1 Pb1
1.0
0.00000000000 3.28431198526 3.28431198526
3.28431198526 0.00000000000 3.28431198526
3.28431198526 3.28431198526 0.00000000000
Te Pb
1 1
direct
0.00000000000 0.00000000000 0.00000000000 Te
0.50000000000 0.50000000000 0.50000000000 Pb
