EMC 1.51py
61
Reciprocal
   0.0000000000    0.4047619000    0.5000000000 0.01
  -0.0253094814    0.4047619000    0.5000000000 0.01
  -0.0126547407    0.4047619000    0.5000000000 0.01
   0.0126547407    0.4047619000    0.5000000000 0.01
   0.0253094814    0.4047619000    0.5000000000 0.01
   0.0000000000    0.3773154030    0.5000000000 0.01
   0.0000000000    0.3910386515    0.5000000000 0.01
   0.0000000000    0.4184851485    0.5000000000 0.01
   0.0000000000    0.4322083970    0.5000000000 0.01
   0.0000000000    0.4047619000    0.4291163539 0.01
   0.0000000000    0.4047619000    0.4645581770 0.01
   0.0000000000    0.4047619000    0.5354418230 0.01
   0.0000000000    0.4047619000    0.5708836461 0.01
  -0.0253094814    0.3773154030    0.5000000000 0.01
  -0.0126547407    0.3773154030    0.5000000000 0.01
   0.0126547407    0.3773154030    0.5000000000 0.01
   0.0253094814    0.3773154030    0.5000000000 0.01
  -0.0253094814    0.3910386515    0.5000000000 0.01
  -0.0126547407    0.3910386515    0.5000000000 0.01
   0.0126547407    0.3910386515    0.5000000000 0.01
   0.0253094814    0.3910386515    0.5000000000 0.01
  -0.0253094814    0.4184851485    0.5000000000 0.01
  -0.0126547407    0.4184851485    0.5000000000 0.01
   0.0126547407    0.4184851485    0.5000000000 0.01
   0.0253094814    0.4184851485    0.5000000000 0.01
  -0.0253094814    0.4322083970    0.5000000000 0.01
  -0.0126547407    0.4322083970    0.5000000000 0.01
   0.0126547407    0.4322083970    0.5000000000 0.01
   0.0253094814    0.4322083970    0.5000000000 0.01
  -0.0253094814    0.4047619000    0.4291163539 0.01
  -0.0126547407    0.4047619000    0.4291163539 0.01
   0.0126547407    0.4047619000    0.4291163539 0.01
   0.0253094814    0.4047619000    0.4291163539 0.01
  -0.0253094814    0.4047619000    0.4645581770 0.01
  -0.0126547407    0.4047619000    0.4645581770 0.01
   0.0126547407    0.4047619000    0.4645581770 0.01
   0.0253094814    0.4047619000    0.4645581770 0.01
  -0.0253094814    0.4047619000    0.5354418230 0.01
  -0.0126547407    0.4047619000    0.5354418230 0.01
   0.0126547407    0.4047619000    0.5354418230 0.01
   0.0253094814    0.4047619000    0.5354418230 0.01
  -0.0253094814    0.4047619000    0.5708836461 0.01
  -0.0126547407    0.4047619000    0.5708836461 0.01
   0.0126547407    0.4047619000    0.5708836461 0.01
   0.0253094814    0.4047619000    0.5708836461 0.01
   0.0000000000    0.3773154030    0.4291163539 0.01
   0.0000000000    0.3910386515    0.4291163539 0.01
   0.0000000000    0.4184851485    0.4291163539 0.01
   0.0000000000    0.4322083970    0.4291163539 0.01
   0.0000000000    0.3773154030    0.4645581770 0.01
   0.0000000000    0.3910386515    0.4645581770 0.01
   0.0000000000    0.4184851485    0.4645581770 0.01
   0.0000000000    0.4322083970    0.4645581770 0.01
   0.0000000000    0.3773154030    0.5354418230 0.01
   0.0000000000    0.3910386515    0.5354418230 0.01
   0.0000000000    0.4184851485    0.5354418230 0.01
   0.0000000000    0.4322083970    0.5354418230 0.01
   0.0000000000    0.3773154030    0.5708836461 0.01
   0.0000000000    0.3910386515    0.5708836461 0.01
   0.0000000000    0.4184851485    0.5708836461 0.01
   0.0000000000    0.4322083970    0.5708836461 0.01
