ADDGRID = .TRUE.
ALGO = A
EDIFF = 1e-07
EDIFFG = -0.001
ENCUT = 600
GGA_COMPAT = .FALSE.
IBRION = -1
ICHARG = 11
ISMEAR = 0
ISPIN = 1
ISTART = 1
ISYM = -1
IVDW = 11
KPOINT_BSE = -1 0 0 0
LCHARG = False
LMAXMIX = 4
LPLANE = .True.
LREAL = .FALSE.
LSORBIT = .TRUE.
LWAVE = False
NBANDS = 88
NPAR = 4
NSW = 0
PREC = Accurate
SIGMA = 0.01
SYSTEM = BiTe
