generate with stepsize: 0.01
61
Reciprocal
   0.2500000000    0.2500000000    0.2500000000 0.01
   0.1885110776    0.1885110776    0.1914024636 0.01
   0.2192555388    0.2192555388    0.2207012318 0.01
   0.2807444612    0.2807444612    0.2792987682 0.01
   0.3114889224    0.3114889224    0.3085975364 0.01
   0.2633337245    0.2366662755    0.2500000000 0.01
   0.2566668622    0.2433331378    0.2500000000 0.01
   0.2433331378    0.2566668622    0.2500000000 0.01
   0.2366662755    0.2633337245    0.2500000000 0.01
   0.2500000000    0.2500000000    0.2270870231 0.01
   0.2500000000    0.2500000000    0.2385435115 0.01
   0.2500000000    0.2500000000    0.2614564885 0.01
   0.2500000000    0.2500000000    0.2729129769 0.01
   0.2018448021    0.1751773531    0.1914024636 0.01
   0.2325892633    0.2059218143    0.2207012318 0.01
   0.2940781857    0.2674107367    0.2792987682 0.01
   0.3248226469    0.2981551979    0.3085975364 0.01
   0.1951779398    0.1818442154    0.1914024636 0.01
   0.2259224010    0.2125886766    0.2207012318 0.01
   0.2874113234    0.2740775990    0.2792987682 0.01
   0.3181557846    0.3048220602    0.3085975364 0.01
   0.1818442154    0.1951779398    0.1914024636 0.01
   0.2125886766    0.2259224010    0.2207012318 0.01
   0.2740775990    0.2874113234    0.2792987682 0.01
   0.3048220602    0.3181557846    0.3085975364 0.01
   0.1751773531    0.2018448021    0.1914024636 0.01
   0.2059218143    0.2325892633    0.2207012318 0.01
   0.2674107367    0.2940781857    0.2792987682 0.01
   0.2981551979    0.3248226469    0.3085975364 0.01
   0.1885110776    0.1885110776    0.1684894867 0.01
   0.2192555388    0.2192555388    0.1977882549 0.01
   0.2807444612    0.2807444612    0.2563857912 0.01
   0.3114889224    0.3114889224    0.2856845594 0.01
   0.1885110776    0.1885110776    0.1799459751 0.01
   0.2192555388    0.2192555388    0.2092447433 0.01
   0.2807444612    0.2807444612    0.2678422797 0.01
   0.3114889224    0.3114889224    0.2971410479 0.01
   0.1885110776    0.1885110776    0.2028589521 0.01
   0.2192555388    0.2192555388    0.2321577203 0.01
   0.2807444612    0.2807444612    0.2907552567 0.01
   0.3114889224    0.3114889224    0.3200540249 0.01
   0.1885110776    0.1885110776    0.2143154406 0.01
   0.2192555388    0.2192555388    0.2436142088 0.01
   0.2807444612    0.2807444612    0.3022117451 0.01
   0.3114889224    0.3114889224    0.3315105133 0.01
   0.2633337245    0.2366662755    0.2270870231 0.01
   0.2566668622    0.2433331378    0.2270870231 0.01
   0.2433331378    0.2566668622    0.2270870231 0.01
   0.2366662755    0.2633337245    0.2270870231 0.01
   0.2633337245    0.2366662755    0.2385435115 0.01
   0.2566668622    0.2433331378    0.2385435115 0.01
   0.2433331378    0.2566668622    0.2385435115 0.01
   0.2366662755    0.2633337245    0.2385435115 0.01
   0.2633337245    0.2366662755    0.2614564885 0.01
   0.2566668622    0.2433331378    0.2614564885 0.01
   0.2433331378    0.2566668622    0.2614564885 0.01
   0.2366662755    0.2633337245    0.2614564885 0.01
   0.2633337245    0.2366662755    0.2729129769 0.01
   0.2566668622    0.2433331378    0.2729129769 0.01
   0.2433331378    0.2566668622    0.2729129769 0.01
   0.2366662755    0.2633337245    0.2729129769 0.01
