Bi2 Te3
1.0
10.22228271000 -2.21667734000 0.00000000000
10.22228271000 2.21667734000 0.00000000000
9.74160157000 0.00000000000 3.80918902000
Bi Te
2 3
direct
0.39979833000 0.39979833000 0.39979833000 Bi
0.60020167000 0.60020167000 0.60020167000 Bi
0.00000000000 0.00000000000 0.00000000000 Te
0.21048582000 0.21048582000 0.21048582000 Te
0.78951418000 0.78951418000 0.78951418000 Te
