generate with stepsize: 0.01
61
Reciprocal
   0.1814520000    0.1814520000    0.3629030000 0.01
   0.1814520000    0.1616962555    0.3431472555 0.01
   0.1814520000    0.1715741278    0.3530251278 0.01
   0.1814520000    0.1913298722    0.3727808722 0.01
   0.1814520000    0.2012077445    0.3826587445 0.01
   0.1616962555    0.1814520000    0.3431472555 0.01
   0.1715741278    0.1814520000    0.3530251278 0.01
   0.1913298722    0.1814520000    0.3727808722 0.01
   0.2012077445    0.1814520000    0.3826587445 0.01
   0.1616962555    0.1616962555    0.3629030000 0.01
   0.1715741278    0.1715741278    0.3629030000 0.01
   0.1913298722    0.1913298722    0.3629030000 0.01
   0.2012077445    0.2012077445    0.3629030000 0.01
   0.1616962555    0.1616962555    0.3233915111 0.01
   0.1616962555    0.1715741278    0.3332693833 0.01
   0.1616962555    0.1913298722    0.3530251278 0.01
   0.1616962555    0.2012077445    0.3629030000 0.01
   0.1715741278    0.1616962555    0.3332693833 0.01
   0.1715741278    0.1715741278    0.3431472555 0.01
   0.1715741278    0.1913298722    0.3629030000 0.01
   0.1715741278    0.2012077445    0.3727808722 0.01
   0.1913298722    0.1616962555    0.3530251278 0.01
   0.1913298722    0.1715741278    0.3629030000 0.01
   0.1913298722    0.1913298722    0.3826587445 0.01
   0.1913298722    0.2012077445    0.3925366167 0.01
   0.2012077445    0.1616962555    0.3629030000 0.01
   0.2012077445    0.1715741278    0.3727808722 0.01
   0.2012077445    0.1913298722    0.3925366167 0.01
   0.2012077445    0.2012077445    0.4024144889 0.01
   0.1616962555    0.1419405111    0.3431472555 0.01
   0.1616962555    0.1518183833    0.3530251278 0.01
   0.1616962555    0.1715741278    0.3727808722 0.01
   0.1616962555    0.1814520000    0.3826587445 0.01
   0.1715741278    0.1518183833    0.3431472555 0.01
   0.1715741278    0.1616962555    0.3530251278 0.01
   0.1715741278    0.1814520000    0.3727808722 0.01
   0.1715741278    0.1913298722    0.3826587445 0.01
   0.1913298722    0.1715741278    0.3431472555 0.01
   0.1913298722    0.1814520000    0.3530251278 0.01
   0.1913298722    0.2012077445    0.3727808722 0.01
   0.1913298722    0.2110856167    0.3826587445 0.01
   0.2012077445    0.1814520000    0.3431472555 0.01
   0.2012077445    0.1913298722    0.3530251278 0.01
   0.2012077445    0.2110856167    0.3727808722 0.01
   0.2012077445    0.2209634889    0.3826587445 0.01
   0.1419405111    0.1616962555    0.3431472555 0.01
   0.1518183833    0.1616962555    0.3530251278 0.01
   0.1715741278    0.1616962555    0.3727808722 0.01
   0.1814520000    0.1616962555    0.3826587445 0.01
   0.1518183833    0.1715741278    0.3431472555 0.01
   0.1616962555    0.1715741278    0.3530251278 0.01
   0.1814520000    0.1715741278    0.3727808722 0.01
   0.1913298722    0.1715741278    0.3826587445 0.01
   0.1715741278    0.1913298722    0.3431472555 0.01
   0.1814520000    0.1913298722    0.3530251278 0.01
   0.2012077445    0.1913298722    0.3727808722 0.01
   0.2110856167    0.1913298722    0.3826587445 0.01
   0.1814520000    0.2012077445    0.3431472555 0.01
   0.1913298722    0.2012077445    0.3530251278 0.01
   0.2110856167    0.2012077445    0.3727808722 0.01
   0.2209634889    0.2012077445    0.3826587445 0.01
