Non SCF run along symmetry lines
200
Reciprocal
0.0 0.0 0.0 1 \Gamma
0.017241379310344827 0.0 0.017241379310344827 1 
0.034482758620689655 0.0 0.034482758620689655 1 
0.05172413793103448 0.0 0.05172413793103448 1 
0.06896551724137931 0.0 0.06896551724137931 1 
0.08620689655172414 0.0 0.08620689655172414 1 
0.10344827586206896 0.0 0.10344827586206896 1 
0.1206896551724138 0.0 0.12068965517241378 1 
0.13793103448275862 0.0 0.13793103448275862 1 
0.15517241379310343 -1.5407439555097887e-33 0.15517241379310343 1 
0.1724137931034483 0.0 0.1724137931034483 1 
0.18965517241379307 0.0 0.18965517241379307 1 
0.20689655172413793 0.0 0.20689655172413793 1 
0.22413793103448273 -1.5407439555097887e-33 0.22413793103448273 1 
0.2413793103448276 0.0 0.24137931034482757 1 
0.25862068965517243 -3.0814879110195774e-33 0.25862068965517243 1 
0.27586206896551724 0.0 0.27586206896551724 1 
0.293103448275862 0.0 0.293103448275862 1 
0.31034482758620685 -3.0814879110195774e-33 0.31034482758620685 1 
0.3275862068965517 3.0814879110195774e-33 0.3275862068965517 1 
0.3448275862068966 0.0 0.3448275862068966 1 
0.3620689655172413 0.0 0.3620689655172413 1 
0.37931034482758613 0.0 0.37931034482758613 1 
0.39655172413793105 0.0 0.39655172413793105 1 
0.41379310344827586 0.0 0.41379310344827586 1 
0.4310344827586206 0.0 0.4310344827586206 1 
0.44827586206896547 -3.0814879110195774e-33 0.44827586206896547 1 
0.46551724137931033 3.0814879110195774e-33 0.46551724137931033 1 
0.4827586206896552 0.0 0.48275862068965514 1 
0.49999999999999994 0.0 0.4999999999999999 1 X
0.49999999999999994 0.0 0.4999999999999999 1 X
0.49999999999999994 0.016666666666666663 0.5166666666666666 1 
0.49999999999999994 0.033333333333333326 0.5333333333333332 1 
0.49999999999999994 0.04999999999999999 0.5499999999999999 1 
0.49999999999999994 0.06666666666666665 0.5666666666666665 1 
0.49999999999999994 0.08333333333333331 0.5833333333333333 1 
0.49999999999999994 0.09999999999999998 0.5999999999999999 1 
0.49999999999999994 0.11666666666666665 0.6166666666666666 1 
0.4999999999999999 0.1333333333333333 0.6333333333333333 1 
0.4999999999999999 0.14999999999999997 0.6499999999999999 1 
0.4999999999999999 0.16666666666666663 0.6666666666666665 1 
0.4999999999999999 0.1833333333333333 0.6833333333333332 1 
0.4999999999999999 0.19999999999999996 0.7 1 
0.4999999999999999 0.21666666666666662 0.7166666666666666 1 
0.4999999999999999 0.2333333333333333 0.7333333333333333 1 
0.4999999999999999 0.24999999999999994 0.7499999999999999 1 W
0.4999999999999999 0.24999999999999994 0.7499999999999999 1 W
0.48863636363636354 0.26136363636363635 0.75 1 
0.4772727272727272 0.27272727272727265 0.75 1 
0.46590909090909083 0.284090909090909 0.75 1 
0.4545454545454544 0.29545454545454536 0.7499999999999999 1 
0.4431818181818181 0.3068181818181817 0.75 1 
0.4318181818181817 0.31818181818181807 0.7499999999999999 1 
0.42045454545454536 0.3295454545454544 0.75 1 
0.409090909090909 0.34090909090909083 0.75 1 
0.39772727272727265 0.3522727272727271 0.75 1 
0.3863636363636363 0.3636363636363635 0.7499999999999999 1 
0.37499999999999994 0.37499999999999983 0.75 1 K
0.37499999999999994 0.37499999999999983 0.75 1 K
0.36290322580645157 0.3629032258064515 0.7258064516129032 1 
0.35080645161290314 0.3508064516129031 0.7016129032258063 1 
0.33870967741935476 0.3387096774193547 0.6774193548387095 1 
0.32661290322580633 0.32661290322580633 0.6532258064516128 1 
0.314516129032258 0.31451612903225795 0.629032258064516 1 
0.30241935483870963 0.3024193548387096 0.6048387096774193 1 
0.2903225806451612 0.29032258064516114 0.5806451612903225 1 
0.2782258064516128 0.27822580645161277 0.5564516129032258 1 
0.26612903225806445 0.26612903225806445 0.532258064516129 1 
0.25403225806451607 0.254032258064516 0.5080645161290323 1 
0.24193548387096767 0.24193548387096767 0.4838709677419354 1 
0.2298387096774193 0.2298387096774193 0.45967741935483863 1 
0.21774193548387089 0.21774193548387089 0.4354838709677419 1 
0.2056451612903225 0.2056451612903225 0.41129032258064513 1 
0.1935483870967741 0.1935483870967741 0.3870967741935483 1 
0.18145161290322578 0.18145161290322576 0.3629032258064516 1 
0.16935483870967738 0.16935483870967735 0.33870967741935476 1 
0.15725806451612898 0.15725806451612898 0.314516129032258 1 
0.1451612903225806 0.14516129032258057 0.29032258064516125 1 
0.13306451612903222 0.13306451612903222 0.2661290322580645 1 
0.12096774193548385 0.12096774193548386 0.24193548387096775 1 
0.10887096774193546 0.10887096774193543 0.21774193548387094 1 
0.09677419354838704 0.09677419354838707 0.19354838709677416 1 
0.08467741935483869 0.0846774193548387 0.16935483870967744 1 
0.07258064516129033 0.07258064516129029 0.14516129032258063 1 
0.06048387096774191 0.06048387096774193 0.12096774193548386 1 
0.04838709677419355 0.048387096774193505 0.09677419354838707 1 
0.036290322580645136 0.03629032258064514 0.07258064516129029 1 
0.024193548387096774 0.02419354838709678 0.04838709677419357 1 
0.012096774193548359 0.012096774193548362 0.024193548387096725 1 
0.0 0.0 0.0 1 \Gamma
0.0 0.0 0.0 1 \Gamma
0.019999999999999997 0.019999999999999997 0.02 1 
0.039999999999999994 0.039999999999999994 0.04 1 
0.059999999999999984 0.05999999999999999 0.06 1 
0.07999999999999999 0.07999999999999999 0.08 1 
0.09999999999999998 0.09999999999999999 0.1 1 
0.11999999999999997 0.11999999999999998 0.12 1 
0.13999999999999996 0.13999999999999999 0.13999999999999999 1 
0.15999999999999998 0.15999999999999998 0.16 1 
0.17999999999999997 0.18 0.18000000000000002 1 
0.19999999999999996 0.19999999999999998 0.2 1 
0.21999999999999995 0.21999999999999997 0.22 1 
0.23999999999999994 0.23999999999999996 0.24 1 
0.25999999999999995 0.25999999999999995 0.26 1 
0.2799999999999999 0.27999999999999997 0.27999999999999997 1 
0.29999999999999993 0.29999999999999993 0.29999999999999993 1 
0.31999999999999995 0.31999999999999995 0.32 1 
0.33999999999999997 0.33999999999999997 0.34 1 
0.35999999999999993 0.36 0.36000000000000004 1 
0.3799999999999999 0.3799999999999999 0.37999999999999995 1 
0.3999999999999999 0.39999999999999997 0.4 1 
0.4199999999999999 0.41999999999999993 0.42 1 
0.4399999999999999 0.43999999999999995 0.44 1 
0.45999999999999996 0.45999999999999996 0.46 1 
0.47999999999999987 0.4799999999999999 0.48 1 
0.4999999999999999 0.4999999999999999 0.49999999999999994 1 L
0.4999999999999999 0.4999999999999999 0.49999999999999994 1 L
0.5069444444444443 0.48611111111111105 0.5069444444444444 1 
0.5138888888888888 0.47222222222222215 0.5138888888888888 1 
0.5208333333333333 0.45833333333333326 0.5208333333333333 1 
0.5277777777777777 0.44444444444444436 0.5277777777777777 1 
0.5347222222222221 0.43055555555555547 0.5347222222222221 1 
0.5416666666666665 0.41666666666666663 0.5416666666666665 1 
0.548611111111111 0.4027777777777777 0.5486111111111112 1 
0.5555555555555555 0.38888888888888884 0.5555555555555555 1 
0.5624999999999999 0.3749999999999999 0.5625 1 
0.5694444444444444 0.36111111111111105 0.5694444444444444 1 
0.5763888888888888 0.3472222222222222 0.5763888888888888 1 
0.5833333333333333 0.33333333333333326 0.5833333333333333 1 
0.5902777777777777 0.3194444444444444 0.5902777777777777 1 
0.5972222222222221 0.30555555555555547 0.5972222222222221 1 
0.6041666666666666 0.29166666666666663 0.6041666666666666 1 
0.611111111111111 0.2777777777777777 0.611111111111111 1 
0.6180555555555555 0.26388888888888884 0.6180555555555555 1 
0.625 0.24999999999999992 0.6249999999999999 1 U
0.625 0.24999999999999992 0.6249999999999999 1 U
0.6136363636363635 0.24999999999999992 0.6363636363636362 1 
0.6022727272727272 0.24999999999999994 0.6477272727272727 1 
0.5909090909090908 0.24999999999999994 0.6590909090909091 1 
0.5795454545454545 0.24999999999999994 0.6704545454545454 1 
0.5681818181818181 0.24999999999999994 0.6818181818181818 1 
0.5568181818181817 0.24999999999999994 0.6931818181818181 1 
0.5454545454545453 0.24999999999999992 0.7045454545454545 1 
0.534090909090909 0.24999999999999994 0.7159090909090908 1 
0.5227272727272726 0.24999999999999997 0.7272727272727272 1 
0.5113636363636362 0.24999999999999994 0.7386363636363635 1 
0.4999999999999999 0.24999999999999994 0.7499999999999999 1 W
0.4999999999999999 0.24999999999999994 0.7499999999999999 1 W
0.49999999999999994 0.26190476190476186 0.738095238095238 1 
0.4999999999999999 0.2738095238095237 0.7261904761904762 1 
0.4999999999999999 0.28571428571428564 0.7142857142857142 1 
0.4999999999999999 0.29761904761904756 0.7023809523809523 1 
0.49999999999999994 0.3095238095238095 0.6904761904761905 1 
0.4999999999999999 0.3214285714285714 0.6785714285714285 1 
0.49999999999999994 0.33333333333333326 0.6666666666666666 1 
0.4999999999999999 0.3452380952380952 0.6547619047619047 1 
0.4999999999999999 0.3571428571428571 0.6428571428571428 1 
0.4999999999999999 0.36904761904761896 0.6309523809523809 1 
0.4999999999999999 0.3809523809523809 0.619047619047619 1 
0.4999999999999999 0.3928571428571428 0.6071428571428571 1 
0.4999999999999999 0.40476190476190466 0.5952380952380951 1 
0.4999999999999999 0.4166666666666666 0.5833333333333333 1 
0.49999999999999994 0.4285714285714285 0.5714285714285714 1 
0.4999999999999999 0.44047619047619035 0.5595238095238094 1 
0.4999999999999999 0.45238095238095233 0.5476190476190476 1 
0.4999999999999999 0.4642857142857142 0.5357142857142856 1 
0.4999999999999999 0.4761904761904761 0.5238095238095237 1 
0.4999999999999999 0.488095238095238 0.5119047619047619 1 
0.4999999999999999 0.4999999999999999 0.49999999999999994 1 L
0.4999999999999999 0.4999999999999999 0.49999999999999994 1 L
0.49305555555555547 0.49305555555555547 0.5138888888888888 1 
0.48611111111111094 0.48611111111111105 0.5277777777777777 1 
0.4791666666666665 0.4791666666666665 0.5416666666666665 1 
0.4722222222222221 0.4722222222222221 0.5555555555555555 1 
0.4652777777777777 0.4652777777777777 0.5694444444444444 1 
0.45833333333333326 0.45833333333333326 0.5833333333333333 1 
0.4513888888888888 0.45138888888888873 0.5972222222222221 1 
0.44444444444444436 0.4444444444444443 0.6111111111111109 1 
0.4374999999999999 0.43749999999999983 0.625 1 
0.43055555555555547 0.4305555555555554 0.6388888888888888 1 
0.42361111111111094 0.423611111111111 0.6527777777777777 1 
0.4166666666666665 0.4166666666666665 0.6666666666666665 1 
0.4097222222222221 0.4097222222222221 0.6805555555555555 1 
0.4027777777777777 0.4027777777777777 0.6944444444444444 1 
0.3958333333333333 0.39583333333333326 0.7083333333333333 1 
0.38888888888888884 0.3888888888888888 0.7222222222222221 1 
0.38194444444444436 0.3819444444444443 0.736111111111111 1 
0.37499999999999994 0.37499999999999983 0.75 1 K
0.625 0.24999999999999992 0.6249999999999999 1 U
0.6136363636363635 0.22727272727272718 0.6136363636363635 1 
0.6022727272727273 0.20454545454545447 0.6022727272727272 1 
0.5909090909090908 0.18181818181818177 0.5909090909090908 1 
0.5795454545454546 0.15909090909090906 0.5795454545454545 1 
0.5681818181818181 0.13636363636363635 0.5681818181818181 1 
0.5568181818181818 0.1136363636363636 0.5568181818181818 1 
0.5454545454545454 0.09090909090909088 0.5454545454545454 1 
0.5340909090909091 0.06818181818181815 0.534090909090909 1 
0.5227272727272727 0.04545454545454543 0.5227272727272726 1 
0.5113636363636364 0.022727272727272724 0.5113636363636362 1 
0.49999999999999994 0.0 0.4999999999999999 1 X
