EMC 1.51py
61
Reciprocal
   0.5000000000    0.5000000000    0.3750000000 0.01
   0.4385110776    0.4385110776    0.3164024636 0.01
   0.4692555388    0.4692555388    0.3457012318 0.01
   0.5307444612    0.5307444612    0.4042987682 0.01
   0.5614889224    0.5614889224    0.4335975364 0.01
   0.5133337245    0.4866662755    0.3750000000 0.01
   0.5066668622    0.4933331378    0.3750000000 0.01
   0.4933331378    0.5066668622    0.3750000000 0.01
   0.4866662755    0.5133337245    0.3750000000 0.01
   0.5000000000    0.5000000000    0.3520870231 0.01
   0.5000000000    0.5000000000    0.3635435115 0.01
   0.5000000000    0.5000000000    0.3864564885 0.01
   0.5000000000    0.5000000000    0.3979129769 0.01
   0.4518448021    0.4251773531    0.3164024636 0.01
   0.4825892633    0.4559218143    0.3457012318 0.01
   0.5440781857    0.5174107367    0.4042987682 0.01
   0.5748226469    0.5481551979    0.4335975364 0.01
   0.4451779398    0.4318442154    0.3164024636 0.01
   0.4759224010    0.4625886766    0.3457012318 0.01
   0.5374113234    0.5240775990    0.4042987682 0.01
   0.5681557846    0.5548220602    0.4335975364 0.01
   0.4318442154    0.4451779398    0.3164024636 0.01
   0.4625886766    0.4759224010    0.3457012318 0.01
   0.5240775990    0.5374113234    0.4042987682 0.01
   0.5548220602    0.5681557846    0.4335975364 0.01
   0.4251773531    0.4518448021    0.3164024636 0.01
   0.4559218143    0.4825892633    0.3457012318 0.01
   0.5174107367    0.5440781857    0.4042987682 0.01
   0.5481551979    0.5748226469    0.4335975364 0.01
   0.4385110776    0.4385110776    0.2934894867 0.01
   0.4692555388    0.4692555388    0.3227882549 0.01
   0.5307444612    0.5307444612    0.3813857912 0.01
   0.5614889224    0.5614889224    0.4106845594 0.01
   0.4385110776    0.4385110776    0.3049459751 0.01
   0.4692555388    0.4692555388    0.3342447433 0.01
   0.5307444612    0.5307444612    0.3928422797 0.01
   0.5614889224    0.5614889224    0.4221410479 0.01
   0.4385110776    0.4385110776    0.3278589521 0.01
   0.4692555388    0.4692555388    0.3571577203 0.01
   0.5307444612    0.5307444612    0.4157552567 0.01
   0.5614889224    0.5614889224    0.4450540249 0.01
   0.4385110776    0.4385110776    0.3393154406 0.01
   0.4692555388    0.4692555388    0.3686142088 0.01
   0.5307444612    0.5307444612    0.4272117451 0.01
   0.5614889224    0.5614889224    0.4565105133 0.01
   0.5133337245    0.4866662755    0.3520870231 0.01
   0.5066668622    0.4933331378    0.3520870231 0.01
   0.4933331378    0.5066668622    0.3520870231 0.01
   0.4866662755    0.5133337245    0.3520870231 0.01
   0.5133337245    0.4866662755    0.3635435115 0.01
   0.5066668622    0.4933331378    0.3635435115 0.01
   0.4933331378    0.5066668622    0.3635435115 0.01
   0.4866662755    0.5133337245    0.3635435115 0.01
   0.5133337245    0.4866662755    0.3864564885 0.01
   0.5066668622    0.4933331378    0.3864564885 0.01
   0.4933331378    0.5066668622    0.3864564885 0.01
   0.4866662755    0.5133337245    0.3864564885 0.01
   0.5133337245    0.4866662755    0.3979129769 0.01
   0.5066668622    0.4933331378    0.3979129769 0.01
   0.4933331378    0.5066668622    0.3979129769 0.01
   0.4866662755    0.5133337245    0.3979129769 0.01
