ADDGRID = .TRUE.
ALGO = A
EDIFF = 1e-07
ENCUT = 600
ICHARG = 11
ISMEAR = 0
ISTART = 1
LPLANE = .TRUE.
LREAL = Auto
NBANDS = 60
NPAR = 4
PREC = Accurate
SIGMA = 0.05
SYSTEM = SnSe
IVDW = 11
