EMC 1.51py
61
Reciprocal
   0.0000000000    0.0476190500    0.0000000000 0.01
  -0.0253094814    0.0476190500    0.0000000000 0.01
  -0.0126547407    0.0476190500    0.0000000000 0.01
   0.0126547407    0.0476190500    0.0000000000 0.01
   0.0253094814    0.0476190500    0.0000000000 0.01
   0.0000000000    0.0201725530    0.0000000000 0.01
   0.0000000000    0.0338958015    0.0000000000 0.01
   0.0000000000    0.0613422985    0.0000000000 0.01
   0.0000000000    0.0750655470    0.0000000000 0.01
   0.0000000000    0.0476190500   -0.0708836461 0.01
   0.0000000000    0.0476190500   -0.0354418230 0.01
   0.0000000000    0.0476190500    0.0354418230 0.01
   0.0000000000    0.0476190500    0.0708836461 0.01
  -0.0253094814    0.0201725530    0.0000000000 0.01
  -0.0126547407    0.0201725530    0.0000000000 0.01
   0.0126547407    0.0201725530    0.0000000000 0.01
   0.0253094814    0.0201725530    0.0000000000 0.01
  -0.0253094814    0.0338958015    0.0000000000 0.01
  -0.0126547407    0.0338958015    0.0000000000 0.01
   0.0126547407    0.0338958015    0.0000000000 0.01
   0.0253094814    0.0338958015    0.0000000000 0.01
  -0.0253094814    0.0613422985    0.0000000000 0.01
  -0.0126547407    0.0613422985    0.0000000000 0.01
   0.0126547407    0.0613422985    0.0000000000 0.01
   0.0253094814    0.0613422985    0.0000000000 0.01
  -0.0253094814    0.0750655470    0.0000000000 0.01
  -0.0126547407    0.0750655470    0.0000000000 0.01
   0.0126547407    0.0750655470    0.0000000000 0.01
   0.0253094814    0.0750655470    0.0000000000 0.01
  -0.0253094814    0.0476190500   -0.0708836461 0.01
  -0.0126547407    0.0476190500   -0.0708836461 0.01
   0.0126547407    0.0476190500   -0.0708836461 0.01
   0.0253094814    0.0476190500   -0.0708836461 0.01
  -0.0253094814    0.0476190500   -0.0354418230 0.01
  -0.0126547407    0.0476190500   -0.0354418230 0.01
   0.0126547407    0.0476190500   -0.0354418230 0.01
   0.0253094814    0.0476190500   -0.0354418230 0.01
  -0.0253094814    0.0476190500    0.0354418230 0.01
  -0.0126547407    0.0476190500    0.0354418230 0.01
   0.0126547407    0.0476190500    0.0354418230 0.01
   0.0253094814    0.0476190500    0.0354418230 0.01
  -0.0253094814    0.0476190500    0.0708836461 0.01
  -0.0126547407    0.0476190500    0.0708836461 0.01
   0.0126547407    0.0476190500    0.0708836461 0.01
   0.0253094814    0.0476190500    0.0708836461 0.01
   0.0000000000    0.0201725530   -0.0708836461 0.01
   0.0000000000    0.0338958015   -0.0708836461 0.01
   0.0000000000    0.0613422985   -0.0708836461 0.01
   0.0000000000    0.0750655470   -0.0708836461 0.01
   0.0000000000    0.0201725530   -0.0354418230 0.01
   0.0000000000    0.0338958015   -0.0354418230 0.01
   0.0000000000    0.0613422985   -0.0354418230 0.01
   0.0000000000    0.0750655470   -0.0354418230 0.01
   0.0000000000    0.0201725530    0.0354418230 0.01
   0.0000000000    0.0338958015    0.0354418230 0.01
   0.0000000000    0.0613422985    0.0354418230 0.01
   0.0000000000    0.0750655470    0.0354418230 0.01
   0.0000000000    0.0201725530    0.0708836461 0.01
   0.0000000000    0.0338958015    0.0708836461 0.01
   0.0000000000    0.0613422985    0.0708836461 0.01
   0.0000000000    0.0750655470    0.0708836461 0.01
