Sn4 Se4
1.0
4.2075981200000001 0.0000000000000000 0.0000000000000003
0.0000000000000007 4.5628682500000002 0.0000000000000003
0.0000000000000000 0.0000000000000000 11.7841172299999997
Sn Se
4 4
direct
0.2500000000000000 0.1153515300000000 0.1210594400000000 Sn
0.7500000000000000 0.8846484700000000 0.8789405600000000 Sn
0.7500000000000000 0.6153515300000000 0.3789405600000000 Sn
0.2500000000000000 0.3846484700000000 0.6210594400000000 Sn
0.7500000000000000 0.5238404500000000 0.1451204700000000 Se
0.2500000000000000 0.4761595500000000 0.8548795300000001 Se
0.2500000000000000 0.0238404500000000 0.3548795300000000 Se
0.7500000000000000 0.9761595500000000 0.6451204699999999 Se
