Bi2 Te3
1.0
10.24350398705 -2.21767379172 0.00000000000
10.24350398705 2.21767379172 0.00000000000
9.76338731480 0.00000000000 3.81099975341
Bi Te
2 3
direct
0.39969707107 0.39969707107 0.39969707107 Bi
0.60030292893 0.60030292893 0.60030292893 Bi
0.00000000000 0.00000000000 0.00000000000 Te
0.21071600665 0.21071600665 0.21071600665 Te
0.78928399335 0.78928399335 0.78928399335 Te
