Sn2 Se2
1.0
2.1355240049999993 -5.9081693800000004 -0.0000000000000002
2.1355240050000011 5.9081693800000004 0.0000000000000005
0.0000000000000000 0.0000000000000000 4.2473929799999999
Sn Se
2 2
direct
0.3751236400000000 0.6248763600000001 0.7500000000000000 Sn
0.6248763600000000 0.3751236400000000 0.2500000000000000 Sn
0.1434173700000001 0.8565826300000001 0.7499999999999999 Se
0.8565826300000000 0.1434173700000000 0.2500000000000000 Se
