Non SCF run along symmetry lines
392
Reciprocal
0.0 0.0 0.0 1 \Gamma
0.006727192573066549 0.006727192573066549 0.0 1 
0.013454385146133098 0.013454385146133098 0.0 1 
0.020181577719199647 0.020181577719199643 0.0 1 
0.026908770292266196 0.026908770292266196 0.0 1 
0.03363596286533274 0.03363596286533275 0.0 1 
0.040363155438399294 0.04036315543839929 0.0 1 
0.04709034801146584 0.04709034801146584 0.0 1 
0.05381754058453239 0.05381754058453239 0.0 1 
0.06054473315759893 0.06054473315759894 0.0 1 
0.06727192573066548 0.0672719257306655 0.0 1 
0.07399911830373203 0.07399911830373204 0.0 1 
0.08072631087679859 0.08072631087679857 0.0 1 
0.08745350344986515 0.08745350344986515 0.0 1 
0.09418069602293168 0.09418069602293168 0.0 1 
0.10090788859599822 0.10090788859599824 0.0 1 
0.10763508116906478 0.10763508116906478 0.0 1 
0.11436227374213133 0.11436227374213133 0.0 1 
0.12108946631519786 0.12108946631519787 0.0 1 
0.1278166588882644 0.12781665888826443 0.0 1 
0.13454385146133097 0.134543851461331 0.0 1 
0.14127104403439752 0.14127104403439755 0.0 1 
0.14799823660746406 0.14799823660746408 0.0 1 
0.15472542918053064 0.15472542918053062 0.0 1 
0.16145262175359718 0.16145262175359715 0.0 1 
0.1681798143266637 0.1681798143266637 0.0 1 
0.1749070068997303 0.1749070068997303 0.0 1 
0.18163419947279683 0.18163419947279685 0.0 1 
0.18836139204586336 0.18836139204586336 0.0 1 
0.1950885846189299 0.19508858461892992 0.0 1 
0.20181577719199645 0.20181577719199648 0.0 1 
0.20854296976506298 0.20854296976506304 0.0 1 
0.21527016233812957 0.21527016233812957 0.0 1 
0.22199735491119613 0.22199735491119613 0.0 1 
0.22872454748426266 0.22872454748426266 0.0 1 
0.23545174005732922 0.23545174005732922 0.0 1 
0.24217893263039572 0.24217893263039575 0.0 1 
0.24890612520346228 0.2489061252034623 0.0 1 
0.2556333177765288 0.25563331777652887 0.0 1 
0.2623605103495954 0.26236051034959545 0.0 1 
0.26908770292266193 0.269087702922662 0.0 1 
0.27581489549572846 0.2758148954957285 0.0 1 
0.28254208806879505 0.2825420880687951 0.0 1 X
0.28254208806879505 0.2825420880687951 0.0 1 X
0.2637059488642087 0.29703928219754205 0.0 1 
0.24486980965962235 0.31153647632628906 0.0 1 
0.22603367045503603 0.32603367045503606 0.0 1 
0.2071975312504497 0.34053086458378307 0.0 1 
0.18836139204586339 0.35502805871253007 0.0 1 
0.16952525284127706 0.3695252528412771 0.0 1 
0.15068911363669074 0.384022446970024 0.0 1 
0.13185297443210442 0.398519641098771 0.0 1 
0.11301683522751804 0.413016835227518 0.0 1 
0.09418069602293169 0.42751402935626504 0.0 1 
0.0753445568183454 0.442011223485012 0.0 1 
0.05650841761375899 0.45650841761375904 0.0 1 
0.03767227840917267 0.471005611742506 0.0 1 
0.01883613920458635 0.48550280587125305 0.0 1 
0.0 0.5 0.0 1 S
0.0 0.5 0.0 1 S
-7.367869423619786e-19 0.5 0.013513513513513514 1 
-1.4735738847239572e-18 0.5 0.02702702702702703 1 
-2.210360827085936e-18 0.5 0.04054054054054054 1 
-2.9471477694479143e-18 0.5 0.05405405405405406 1 
-3.683934711809893e-18 0.5 0.06756756756756757 1 
-4.420721654171872e-18 0.5 0.08108108108108109 1 
-5.1575085965338506e-18 0.5 0.0945945945945946 1 
-5.894295538895829e-18 0.5 0.10810810810810811 1 
-6.6310824812578075e-18 0.5 0.12162162162162163 1 
-7.367869423619786e-18 0.5 0.13513513513513514 1 
-8.104656365981764e-18 0.5 0.14864864864864866 1 
-8.841443308343743e-18 0.5 0.16216216216216217 1 
-9.57823025070572e-18 0.5 0.17567567567567566 1 
-1.0315017193067701e-17 0.5 0.1891891891891892 1 
-1.1051804135429678e-17 0.5 0.2027027027027027 1 
-1.1788591077791657e-17 0.5 0.21621621621621623 1 
-1.2525378020153636e-17 0.5 0.22972972972972971 1 
-1.3262164962515615e-17 0.5 0.24324324324324326 1 
4.151219932638024e-17 0.5 0.2567567567567567 1 
4.0775412384018256e-17 0.5 0.2702702702702703 1 
4.003862544165628e-17 0.5 0.2837837837837837 1 
3.93018384992943e-17 0.5 0.2972972972972973 1 
3.8565051556932325e-17 0.5 0.3108108108108108 1 
3.782826461457034e-17 0.5 0.32432432432432434 1 
3.709147767220837e-17 0.5 0.33783783783783783 1 
3.635469072984639e-17 0.5 0.3513513513513513 1 
3.5617903787484404e-17 0.5 0.36486486486486486 1 
3.4881116845122425e-17 0.5 0.3783783783783784 1 
3.414432990276045e-17 0.5 0.3918918918918919 1 
3.3407542960398473e-17 0.5 0.4054054054054054 1 
3.2670756018036494e-17 0.5 0.4189189189189189 1 
3.1933969075674515e-17 0.5 0.43243243243243246 1 
3.1197182133312537e-17 0.5 0.44594594594594594 1 
3.046039519095056e-17 0.5 0.45945945945945943 1 
2.972360824858858e-17 0.5 0.47297297297297297 1 
2.89868213062266e-17 0.5 0.4864864864864865 1 
2.825003436386462e-17 0.5 0.5 1 R
2.825003436386462e-17 0.5 0.5 1 R
0.018836139204586322 0.4855028058712531 0.5 1 
0.03767227840917267 0.47100561174250605 0.5 1 
0.05650841761375899 0.45650841761375904 0.5 1 
0.0753445568183454 0.44201122348501204 0.5 1 
0.09418069602293169 0.42751402935626504 0.5 1 
0.11301683522751801 0.41301683522751803 0.5 1 
0.13185297443210442 0.3985196410987711 0.5 1 
0.1506891136366907 0.3840224469700241 0.5 1 
0.16952525284127704 0.36952525284127713 0.5 1 
0.18836139204586339 0.3550280587125301 0.5 1 
0.2071975312504497 0.34053086458378307 0.5 1 
0.22603367045503606 0.32603367045503606 0.5 1 
0.24486980965962235 0.31153647632628906 0.5 1 
0.26370594886420873 0.29703928219754205 0.5 1 
0.2825420880687951 0.2825420880687951 0.5 1 A
0.2825420880687951 0.2825420880687951 0.5 1 A
0.2758148954957285 0.2758148954957285 0.5 1 
0.269087702922662 0.269087702922662 0.5 1 
0.26236051034959545 0.2623605103495954 0.5 1 
0.25563331777652887 0.25563331777652887 0.5 1 
0.2489061252034623 0.2489061252034623 0.5 1 
0.2421789326303958 0.24217893263039578 0.5 1 
0.23545174005732922 0.23545174005732925 0.5 1 
0.22872454748426266 0.22872454748426269 0.5 1 
0.22199735491119613 0.22199735491119615 0.5 1 
0.21527016233812957 0.2152701623381296 0.5 1 
0.208542969765063 0.20854296976506304 0.5 1 
0.20181577719199648 0.20181577719199648 0.5 1 
0.19508858461892992 0.19508858461892992 0.5 1 
0.1883613920458634 0.1883613920458634 0.5 1 
0.18163419947279685 0.18163419947279685 0.5 1 
0.1749070068997303 0.17490700689973032 0.5 1 
0.1681798143266637 0.16817981432666373 0.5 1 
0.16145262175359718 0.1614526217535972 0.5 1 
0.15472542918053064 0.15472542918053064 0.5 1 
0.14799823660746408 0.14799823660746408 0.5 1 
0.14127104403439755 0.14127104403439755 0.5 1 
0.134543851461331 0.134543851461331 0.5 1 
0.12781665888826443 0.12781665888826443 0.5 1 
0.1210894663151979 0.1210894663151979 0.5 1 
0.11436227374213134 0.11436227374213134 0.5 1 
0.10763508116906478 0.10763508116906477 0.5 1 
0.10090788859599821 0.10090788859599824 0.5 1 
0.0941806960229317 0.09418069602293172 0.5 1 
0.08745350344986516 0.08745350344986516 0.5 1 
0.0807263108767986 0.0807263108767986 0.5 1 
0.07399911830373206 0.07399911830373204 0.5 1 
0.0672719257306655 0.06727192573066551 0.5 1 
0.060544733157598944 0.06054473315759895 0.5 1 
0.0538175405845324 0.05381754058453239 0.5 1 
0.04709034801146584 0.047090348011465846 0.5 1 
0.04036315543839933 0.04036315543839933 0.5 1 
0.033635962865332776 0.033635962865332776 0.5 1 
0.026908770292266224 0.026908770292266227 0.5 1 
0.020181577719199633 0.020181577719199637 0.5 1 
0.013454385146133119 0.01345438514613312 0.5 1 
0.006727192573066568 0.006727192573066568 0.5 1 
1.5386922929327966e-17 1.5386922929327966e-17 0.5 1 Z
9.244463733058732e-33 -1.232595164407831e-32 0.5 1 Z
9.244463733058732e-33 -2.465190328815662e-32 0.48648648648648646 1 
6.162975822039155e-33 -1.232595164407831e-32 0.47297297297297297 1 
6.162975822039155e-33 -1.232595164407831e-32 0.45945945945945943 1 
6.162975822039155e-33 -1.232595164407831e-32 0.44594594594594594 1 
1.232595164407831e-32 -1.8488927466117464e-32 0.4324324324324324 1 
6.162975822039155e-33 -1.8488927466117464e-32 0.41891891891891886 1 
9.244463733058732e-33 -1.8488927466117464e-32 0.4054054054054054 1 
6.162975822039155e-33 -6.162975822039155e-33 0.3918918918918919 1 
6.162975822039155e-33 -1.232595164407831e-32 0.37837837837837834 1 
0.0 0.0 0.36486486486486486 1 
6.162975822039155e-33 -1.232595164407831e-32 0.3513513513513513 1 
3.0814879110195774e-33 -6.162975822039155e-33 0.33783783783783783 1 
9.244463733058732e-33 -1.232595164407831e-32 0.3243243243243243 1 
6.162975822039155e-33 -1.232595164407831e-32 0.3108108108108108 1 
0.0 -6.162975822039155e-33 0.29729729729729726 1 
6.162975822039155e-33 -6.162975822039155e-33 0.2837837837837837 1 
3.0814879110195774e-33 -6.162975822039155e-33 0.27027027027027023 1 
3.0814879110195774e-33 -6.162975822039155e-33 0.2567567567567567 1 
1.5407439555097887e-33 -6.162975822039155e-33 0.24324324324324326 1 
6.162975822039155e-33 -9.244463733058732e-33 0.2297297297297297 1 
3.0814879110195774e-33 -6.162975822039155e-33 0.21621621621621623 1 
3.0814879110195774e-33 -9.244463733058732e-33 0.20270270270270266 1 
0.0 -3.0814879110195774e-33 0.1891891891891892 1 
3.0814879110195774e-33 -6.162975822039155e-33 0.17567567567567563 1 
3.0814879110195774e-33 -6.162975822039155e-33 0.16216216216216217 1 
0.0 -3.0814879110195774e-33 0.14864864864864863 1 
4.622231866529366e-33 -9.244463733058732e-33 0.13513513513513511 1 
4.622231866529366e-33 -9.244463733058732e-33 0.12162162162162157 1 
-7.703719777548943e-34 -3.0814879110195774e-33 0.10810810810810811 1 
-1.5407439555097887e-33 0.0 0.09459459459459459 1 
4.622231866529366e-33 -4.622231866529366e-33 0.08108108108108104 1 
3.851859888774472e-33 -4.622231866529366e-33 0.06756756756756752 1 
3.4666738998970245e-33 -3.0814879110195774e-33 0.05405405405405406 1 
3.4666738998970245e-33 -1.5407439555097887e-33 0.04054054054054052 1 
9.62964972193618e-34 -2.6963019221421302e-33 0.02702702702702699 1 
5.7777898331617076e-34 -1.7333369499485123e-33 0.013513513513513459 1 
0.0 0.0 0.0 1 \Gamma
0.0 0.0 0.0 1 \Gamma
-0.018518518518518517 0.018518518518518517 0.0 1 
-0.037037037037037035 0.037037037037037035 0.0 1 
-0.05555555555555555 0.05555555555555555 0.0 1 
-0.07407407407407407 0.07407407407407407 0.0 1 
-0.09259259259259259 0.09259259259259259 0.0 1 
-0.1111111111111111 0.1111111111111111 0.0 1 
-0.12962962962962962 0.12962962962962962 0.0 1 
-0.14814814814814814 0.14814814814814814 0.0 1 
-0.16666666666666666 0.16666666666666666 0.0 1 
-0.18518518518518517 0.18518518518518517 0.0 1 
-0.2037037037037037 0.2037037037037037 0.0 1 
-0.2222222222222222 0.2222222222222222 0.0 1 
-0.24074074074074073 0.24074074074074073 0.0 1 
-0.25925925925925924 0.25925925925925924 0.0 1 
-0.2777777777777778 0.2777777777777778 0.0 1 
-0.2962962962962963 0.2962962962962963 0.0 1 
-0.3148148148148148 0.3148148148148148 0.0 1 
-0.3333333333333333 0.3333333333333333 0.0 1 
-0.35185185185185186 0.35185185185185186 0.0 1 
-0.37037037037037035 0.37037037037037035 0.0 1 
-0.3888888888888889 0.3888888888888889 0.0 1 
-0.4074074074074074 0.4074074074074074 0.0 1 
-0.42592592592592593 0.42592592592592593 0.0 1 
-0.4444444444444444 0.4444444444444444 0.0 1 
-0.4629629629629629 0.4629629629629629 0.0 1 
-0.48148148148148145 0.48148148148148145 0.0 1 
-0.5 0.5 0.0 1 Y
-0.5 0.5 0.0 1 Y
-0.4932044402521498 0.5067955597478502 0.0 1 
-0.4864088805042997 0.5135911194957004 0.0 1 
-0.4796133207564495 0.5203866792435505 0.0 1 
-0.4728177610085994 0.5271822389914006 0.0 1 
-0.4660222012607492 0.5339777987392508 0.0 1 
-0.4592266415128991 0.540773358487101 0.0 1 
-0.4524310817650489 0.5475689182349511 0.0 1 
-0.4456355220171988 0.5543644779828013 0.0 1 
-0.4388399622693486 0.5611600377306514 0.0 1 
-0.43204440252149845 0.5679555974785016 0.0 1 
-0.42524884277364833 0.5747511572263517 0.0 1 
-0.4184532830257982 0.5815467169742019 0.0 1 
-0.41165772327794803 0.5883422767220521 0.0 1 
-0.40486216353009785 0.5951378364699023 0.0 1 
-0.39806660378224773 0.6019333962177524 0.0 1 
-0.39127104403439755 0.6087289559656025 0.0 1 
-0.3844754842865473 0.6155245157134526 0.0 1 
-0.37767992453869714 0.6223200754613027 0.0 1 
-0.37088436479084697 0.6291156352091529 0.0 1 
-0.36408880504299684 0.6359111949570031 0.0 1 
-0.3572932452951467 0.6427067547048533 0.0 1 
-0.35049768554729654 0.6495023144527035 0.0 1 
-0.34370212579944637 0.6562978742005535 0.0 1 
-0.33690656605159625 0.6630934339484037 0.0 1 
-0.3301110063037461 0.6698889936962539 0.0 1 
-0.32331544655589595 0.676684553444104 0.0 1 
-0.31651988680804577 0.6834801131919542 0.0 1 
-0.3097243270601956 0.6902756729398043 0.0 1 
-0.30292876731234547 0.6970712326876545 0.0 1 
-0.29613320756449535 0.7038667924355047 0.0 1 
-0.28933764781664517 0.7106623521833548 0.0 1 
-0.282542088068795 0.717457911931205 0.0 1 X_1
-0.282542088068795 0.717457911931205 0.0 1 X_1
-0.282542088068795 0.717457911931205 0.013513513513513514 1 
-0.282542088068795 0.717457911931205 0.02702702702702703 1 
-0.282542088068795 0.717457911931205 0.04054054054054054 1 
-0.282542088068795 0.717457911931205 0.05405405405405406 1 
-0.282542088068795 0.717457911931205 0.06756756756756757 1 
-0.282542088068795 0.717457911931205 0.08108108108108109 1 
-0.282542088068795 0.717457911931205 0.0945945945945946 1 
-0.282542088068795 0.717457911931205 0.10810810810810811 1 
-0.282542088068795 0.717457911931205 0.12162162162162163 1 
-0.282542088068795 0.717457911931205 0.13513513513513514 1 
-0.282542088068795 0.717457911931205 0.14864864864864866 1 
-0.282542088068795 0.717457911931205 0.16216216216216217 1 
-0.282542088068795 0.717457911931205 0.17567567567567566 1 
-0.282542088068795 0.717457911931205 0.1891891891891892 1 
-0.282542088068795 0.717457911931205 0.2027027027027027 1 
-0.282542088068795 0.717457911931205 0.21621621621621623 1 
-0.282542088068795 0.717457911931205 0.22972972972972971 1 
-0.282542088068795 0.717457911931205 0.24324324324324326 1 
-0.282542088068795 0.717457911931205 0.2567567567567567 1 
-0.282542088068795 0.717457911931205 0.2702702702702703 1 
-0.282542088068795 0.717457911931205 0.2837837837837837 1 
-0.282542088068795 0.717457911931205 0.2972972972972973 1 
-0.282542088068795 0.717457911931205 0.3108108108108108 1 
-0.282542088068795 0.717457911931205 0.32432432432432434 1 
-0.282542088068795 0.717457911931205 0.33783783783783783 1 
-0.282542088068795 0.717457911931205 0.3513513513513513 1 
-0.282542088068795 0.717457911931205 0.36486486486486486 1 
-0.282542088068795 0.717457911931205 0.3783783783783784 1 
-0.282542088068795 0.717457911931205 0.3918918918918919 1 
-0.282542088068795 0.717457911931205 0.4054054054054054 1 
-0.282542088068795 0.717457911931205 0.4189189189189189 1 
-0.282542088068795 0.717457911931205 0.43243243243243246 1 
-0.282542088068795 0.717457911931205 0.44594594594594594 1 
-0.282542088068795 0.717457911931205 0.45945945945945943 1 
-0.282542088068795 0.717457911931205 0.47297297297297297 1 
-0.282542088068795 0.7174579119312051 0.4864864864864865 1 
-0.282542088068795 0.7174579119312051 0.5 1 A_1
-0.282542088068795 0.7174579119312051 0.5 1 A_1
-0.28933764781664517 0.7106623521833549 0.5 1 
-0.29613320756449535 0.7038667924355048 0.5 1 
-0.30292876731234547 0.6970712326876546 0.5 1 
-0.3097243270601956 0.6902756729398044 0.5 1 
-0.31651988680804577 0.6834801131919543 0.5 1 
-0.32331544655589595 0.6766845534441042 0.5 1 
-0.3301110063037461 0.669888993696254 0.5 1 
-0.33690656605159625 0.6630934339484038 0.5 1 
-0.34370212579944637 0.6562978742005536 0.5 1 
-0.35049768554729654 0.6495023144527036 0.5 1 
-0.3572932452951467 0.6427067547048534 0.5 1 
-0.36408880504299684 0.6359111949570032 0.5 1 
-0.37088436479084697 0.629115635209153 0.5 1 
-0.37767992453869714 0.6223200754613029 0.5 1 
-0.3844754842865473 0.6155245157134527 0.5 1 
-0.39127104403439755 0.6087289559656026 0.5 1 
-0.39806660378224773 0.6019333962177525 0.5 1 
-0.40486216353009785 0.5951378364699024 0.5 1 
-0.41165772327794803 0.5883422767220522 0.5 1 
-0.41845328302579815 0.581546716974202 0.5 1 
-0.42524884277364833 0.5747511572263518 0.5 1 
-0.43204440252149845 0.5679555974785017 0.5 1 
-0.4388399622693486 0.5611600377306515 0.5 1 
-0.4456355220171988 0.5543644779828014 0.5 1 
-0.4524310817650489 0.5475689182349512 0.5 1 
-0.4592266415128991 0.5407733584871011 0.5 1 
-0.4660222012607492 0.5339777987392509 0.5 1 
-0.4728177610085994 0.5271822389914007 0.5 1 
-0.4796133207564496 0.5203866792435505 0.5 1 
-0.4864088805042997 0.5135911194957005 0.5 1 
-0.4932044402521498 0.5067955597478503 0.5 1 
-0.5 0.5000000000000001 0.5 1 T
-0.5 0.5000000000000001 0.5 1 T
-0.5 0.5000000000000001 0.48648648648648646 1 
-0.5 0.5 0.47297297297297297 1 
-0.5 0.5 0.45945945945945943 1 
-0.5 0.5 0.44594594594594594 1 
-0.5 0.5 0.4324324324324324 1 
-0.5 0.5 0.41891891891891886 1 
-0.5 0.5 0.4054054054054054 1 
-0.5 0.5 0.3918918918918919 1 
-0.5 0.5 0.37837837837837834 1 
-0.5 0.5 0.36486486486486486 1 
-0.5 0.5 0.3513513513513513 1 
-0.5 0.5 0.33783783783783783 1 
-0.5 0.5 0.3243243243243243 1 
-0.5 0.5 0.3108108108108108 1 
-0.5 0.5 0.29729729729729726 1 
-0.5 0.5 0.2837837837837837 1 
-0.5 0.5 0.27027027027027023 1 
-0.5 0.5 0.2567567567567567 1 
-0.5 0.5 0.24324324324324326 1 
-0.5 0.5 0.2297297297297297 1 
-0.5 0.5 0.21621621621621623 1 
-0.5 0.5 0.20270270270270266 1 
-0.5 0.5 0.1891891891891892 1 
-0.5 0.5 0.17567567567567563 1 
-0.5 0.5 0.16216216216216217 1 
-0.5 0.5 0.14864864864864863 1 
-0.5 0.5 0.13513513513513511 1 
-0.5 0.5 0.12162162162162157 1 
-0.5 0.5 0.10810810810810811 1 
-0.5 0.5 0.09459459459459459 1 
-0.5 0.5 0.08108108108108104 1 
-0.5 0.5 0.06756756756756752 1 
-0.5 0.5 0.05405405405405406 1 
-0.5 0.5 0.04054054054054052 1 
-0.5 0.5 0.02702702702702699 1 
-0.5 0.5 0.013513513513513459 1 
-0.5 0.5 0.0 1 Y
9.244463733058732e-33 -1.232595164407831e-32 0.5 1 Z
-0.018518518518518517 0.01851851851851852 0.5 1 
-0.03703703703703703 0.03703703703703703 0.5 1 
-0.055555555555555546 0.055555555555555546 0.5 1 
-0.07407407407407407 0.07407407407407407 0.5 1 
-0.09259259259259259 0.09259259259259259 0.5 1 
-0.1111111111111111 0.1111111111111111 0.5 1 
-0.12962962962962962 0.1296296296296296 0.5 1 
-0.14814814814814814 0.1481481481481481 0.5 1 
-0.16666666666666666 0.16666666666666663 0.5 1 
-0.18518518518518517 0.18518518518518515 0.5 1 
-0.2037037037037037 0.20370370370370366 0.5 1 
-0.2222222222222222 0.22222222222222218 0.5 1 
-0.24074074074074073 0.2407407407407407 0.5 1 
-0.2592592592592592 0.25925925925925924 0.5 1 
-0.27777777777777773 0.2777777777777778 0.5 1 
-0.2962962962962962 0.2962962962962963 0.5 1 
-0.31481481481481477 0.3148148148148148 0.5 1 
-0.33333333333333326 0.3333333333333333 0.5 1 
-0.3518518518518518 0.35185185185185186 0.5 1 
-0.3703703703703703 0.37037037037037035 0.5 1 
-0.38888888888888884 0.3888888888888889 0.5 1 
-0.40740740740740733 0.4074074074074074 0.5 1 
-0.4259259259259259 0.42592592592592593 0.5 1 
-0.44444444444444436 0.4444444444444444 0.5 1 
-0.4629629629629629 0.46296296296296297 0.5 1 
-0.48148148148148145 0.4814814814814815 0.5 1 
-0.5 0.5000000000000001 0.5 1 T
