Sn2 Se2
1.0
2.13818630000 -5.92642563000 -0.00000000000
2.13818630000 5.92642563000 0.00000000000
0.00000000000 0.00000000000 4.25446176000
Sn Se
2 2
direct
0.37460531000 0.62539469000 0.25000000000 Sn
0.62539469000 0.37460531000 0.75000000000 Sn
0.14358059000 0.85641941000 0.25000000000 Se
0.85641941000 0.14358059000 0.75000000000 Se
