EDIFF = 1e-07
EDIFFG = -0.001
ENCUT = 600
ICHARG = 2
ISIF = 3
ISMEAR = -5
IBRION = 6
NFREE = 4
ISTART = 0
PREC = Accurate
SYSTEM = SnSe
ADDGRID = .TRUE.
LCHARG = .FALSE.
LWAVE = .FALSE.
IVDW = 11
POTIM = 0.01
