Sn4 Se4                                 
   1.0000000000000000     
     4.2710480149556282    0.0000000000000000    0.0000000000000000
     0.0000000000000000   11.8163387590628908    0.0000000000000000
     0.0000000000000000    0.0000000000000000    4.2473929815349853
   Sn   Se
     4     4
Direct
  0.0000000000000000  0.1248763838725679  0.2500000000000000
  0.0000000000000000  0.8751236351274372  0.7500000000000000
  0.5000000000000000  0.6248763648725628  0.2500000000000000
  0.5000000000000000  0.3751236351274372  0.7500000000000000
  0.0000000000000000  0.3565826537609027  0.2500000000000000
  0.0000000000000000  0.6434173862391006  0.7500000000000000
  0.5000000000000000  0.8565826137608994  0.2500000000000000
  0.5000000000000000  0.1434173362390965  0.7500000000000000

  0.00000000E+00  0.00000000E+00  0.00000000E+00
  0.00000000E+00  0.00000000E+00  0.00000000E+00
  0.00000000E+00  0.00000000E+00  0.00000000E+00
  0.00000000E+00  0.00000000E+00  0.00000000E+00
  0.00000000E+00  0.00000000E+00  0.00000000E+00
  0.00000000E+00  0.00000000E+00  0.00000000E+00
  0.00000000E+00  0.00000000E+00  0.00000000E+00
  0.00000000E+00  0.00000000E+00  0.00000000E+00
