Bi2 Te3
1.0
10.22228270765 -2.21667734183 0.00000000000
10.22228270765 2.21667734183 0.00000000000
9.74160157426 0.00000000000 3.80918901623
Bi Te
2 3
direct
0.60020167231 0.60020167231 0.60020167231 Bi
0.39979832769 0.39979832769 0.39979832769 Bi
0.00000000000 0.00000000000 0.00000000000 Te
0.78951417810 0.78951417810 0.78951417810 Te
0.21048582190 0.21048582190 0.21048582190 Te
