SYSTEM = SnSe
PREC = Accurate
ENCUT = 600.0
EDIFF = 1e-7
ISMEAR = -5
ISTART = 0
ICHARG = 2
EDIFFG = -1e-3
NSW = 1
IBRION = 8
LEPSILON = .TRUE.
LRPA = .FALSE.
