generate with stepsize: 0.01
61
Reciprocal
   0.5000000000    0.5000000000    0.5000000000 0.01
   0.5000000000    0.4802442555    0.4802442555 0.01
   0.5000000000    0.4901221278    0.4901221278 0.01
   0.5000000000    0.5098778722    0.5098778722 0.01
   0.5000000000    0.5197557445    0.5197557445 0.01
   0.4802442555    0.5000000000    0.4802442555 0.01
   0.4901221278    0.5000000000    0.4901221278 0.01
   0.5098778722    0.5000000000    0.5098778722 0.01
   0.5197557445    0.5000000000    0.5197557445 0.01
   0.4802442555    0.4802442555    0.5000000000 0.01
   0.4901221278    0.4901221278    0.5000000000 0.01
   0.5098778722    0.5098778722    0.5000000000 0.01
   0.5197557445    0.5197557445    0.5000000000 0.01
   0.4802442555    0.4802442555    0.4604885111 0.01
   0.4802442555    0.4901221278    0.4703663833 0.01
   0.4802442555    0.5098778722    0.4901221278 0.01
   0.4802442555    0.5197557445    0.5000000000 0.01
   0.4901221278    0.4802442555    0.4703663833 0.01
   0.4901221278    0.4901221278    0.4802442555 0.01
   0.4901221278    0.5098778722    0.5000000000 0.01
   0.4901221278    0.5197557445    0.5098778722 0.01
   0.5098778722    0.4802442555    0.4901221278 0.01
   0.5098778722    0.4901221278    0.5000000000 0.01
   0.5098778722    0.5098778722    0.5197557445 0.01
   0.5098778722    0.5197557445    0.5296336167 0.01
   0.5197557445    0.4802442555    0.5000000000 0.01
   0.5197557445    0.4901221278    0.5098778722 0.01
   0.5197557445    0.5098778722    0.5296336167 0.01
   0.5197557445    0.5197557445    0.5395114889 0.01
   0.4802442555    0.4604885111    0.4802442555 0.01
   0.4802442555    0.4703663833    0.4901221278 0.01
   0.4802442555    0.4901221278    0.5098778722 0.01
   0.4802442555    0.5000000000    0.5197557445 0.01
   0.4901221278    0.4703663833    0.4802442555 0.01
   0.4901221278    0.4802442555    0.4901221278 0.01
   0.4901221278    0.5000000000    0.5098778722 0.01
   0.4901221278    0.5098778722    0.5197557445 0.01
   0.5098778722    0.4901221278    0.4802442555 0.01
   0.5098778722    0.5000000000    0.4901221278 0.01
   0.5098778722    0.5197557445    0.5098778722 0.01
   0.5098778722    0.5296336167    0.5197557445 0.01
   0.5197557445    0.5000000000    0.4802442555 0.01
   0.5197557445    0.5098778722    0.4901221278 0.01
   0.5197557445    0.5296336167    0.5098778722 0.01
   0.5197557445    0.5395114889    0.5197557445 0.01
   0.4604885111    0.4802442555    0.4802442555 0.01
   0.4703663833    0.4802442555    0.4901221278 0.01
   0.4901221278    0.4802442555    0.5098778722 0.01
   0.5000000000    0.4802442555    0.5197557445 0.01
   0.4703663833    0.4901221278    0.4802442555 0.01
   0.4802442555    0.4901221278    0.4901221278 0.01
   0.5000000000    0.4901221278    0.5098778722 0.01
   0.5098778722    0.4901221278    0.5197557445 0.01
   0.4901221278    0.5098778722    0.4802442555 0.01
   0.5000000000    0.5098778722    0.4901221278 0.01
   0.5197557445    0.5098778722    0.5098778722 0.01
   0.5296336167    0.5098778722    0.5197557445 0.01
   0.5000000000    0.5197557445    0.4802442555 0.01
   0.5098778722    0.5197557445    0.4901221278 0.01
   0.5296336167    0.5197557445    0.5098778722 0.01
   0.5395114889    0.5197557445    0.5197557445 0.01
