Non SCF run along symmetry lines
224
Reciprocal
0.0 0.0 0.0 1 \Gamma
0.021739130434782608 0.0 0.0 1 
0.043478260869565216 0.0 0.0 1 
0.06521739130434782 0.0 0.0 1 
0.08695652173913043 0.0 0.0 1 
0.10869565217391304 0.0 0.0 1 
0.13043478260869565 0.0 0.0 1 
0.15217391304347827 -3.0814879110195774e-33 0.0 1 
0.17391304347826086 0.0 0.0 1 
0.1956521739130435 0.0 0.0 1 
0.21739130434782608 0.0 0.0 1 
0.23913043478260873 0.0 0.0 1 
0.2608695652173913 0.0 0.0 1 
0.2826086956521739 -6.162975822039155e-33 0.0 1 
0.30434782608695654 -6.162975822039155e-33 0.0 1 
0.32608695652173914 0.0 0.0 1 
0.34782608695652173 0.0 0.0 1 
0.36956521739130427 -1.232595164407831e-32 0.0 1 
0.391304347826087 0.0 0.0 1 
0.41304347826086957 -1.232595164407831e-32 0.0 1 
0.43478260869565216 0.0 0.0 1 
0.45652173913043476 -1.232595164407831e-32 0.0 1 
0.47826086956521746 0.0 0.0 1 
0.5 0.0 0.0 1 X
0.5 0.0 0.0 1 X
0.5 0.02380952380952381 0.0 1 
0.5 0.04761904761904762 0.0 1 
0.5 0.07142857142857142 0.0 1 
0.5 0.09523809523809525 0.0 1 
0.5 0.11904761904761905 0.0 1 
0.5 0.14285714285714285 0.0 1 
0.5 0.16666666666666669 0.0 1 
0.5 0.1904761904761905 0.0 1 
0.5 0.2142857142857143 0.0 1 
0.5 0.23809523809523808 0.0 1 
0.5 0.261904761904762 0.0 1 
0.5 0.28571428571428575 0.0 1 
0.5 0.3095238095238096 0.0 1 
0.5 0.33333333333333337 0.0 1 
0.5 0.3571428571428572 0.0 1 
0.5 0.380952380952381 0.0 1 
0.5 0.4047619047619048 0.0 1 
0.5 0.4285714285714286 0.0 1 
0.5 0.45238095238095244 0.0 1 
0.5 0.4761904761904762 0.0 1 
0.5 0.5 0.0 1 S
0.5 0.5 0.0 1 S
0.47826086956521735 0.5 0.0 1 
0.4565217391304348 0.5 0.0 1 
0.43478260869565216 0.5 0.0 1 
0.41304347826086957 0.5 0.0 1 
0.3913043478260869 0.5 0.0 1 
0.3695652173913044 0.5 0.0 1 
0.34782608695652173 0.5 0.0 1 
0.32608695652173914 0.5 0.0 1 
0.3043478260869565 0.5 0.0 1 
0.2826086956521739 0.5 0.0 1 
0.2608695652173913 0.5 0.0 1 
0.23913043478260873 0.5 0.0 1 
0.21739130434782614 0.5 0.0 1 
0.19565217391304346 0.5 0.0 1 
0.17391304347826086 0.5 0.0 1 
0.15217391304347827 0.5 0.0 1 
0.1304347826086957 0.5 0.0 1 
0.10869565217391301 0.5 0.0 1 
0.08695652173913045 0.5 0.0 1 
0.06521739130434782 0.5 0.0 1 
0.043478260869565265 0.5 0.0 1 
0.021739130434782556 0.5 0.0 1 
0.0 0.5 0.0 1 Y
0.0 0.5 0.0 1 Y
0.0 0.47619047619047616 0.0 1 
0.0 0.45238095238095244 0.0 1 
0.0 0.42857142857142855 0.0 1 
0.0 0.4047619047619048 0.0 1 
0.0 0.380952380952381 0.0 1 
0.0 0.3571428571428572 0.0 1 
0.0 0.33333333333333337 0.0 1 
0.0 0.30952380952380953 0.0 1 
0.0 0.28571428571428575 0.0 1 
0.0 0.2619047619047619 0.0 1 
0.0 0.23809523809523808 0.0 1 
0.0 0.21428571428571433 0.0 1 
0.0 0.1904761904761905 0.0 1 
0.0 0.16666666666666669 0.0 1 
0.0 0.14285714285714288 0.0 1 
0.0 0.11904761904761907 0.0 1 
0.0 0.09523809523809522 0.0 1 
0.0 0.07142857142857145 0.0 1 
0.0 0.04761904761904761 0.0 1 
0.0 0.023809523809523846 0.0 1 
0.0 0.0 0.0 1 \Gamma
0.0 0.0 0.0 1 \Gamma
-1.925929944387236e-34 -1.925929944387236e-34 0.055555555555555546 1 
-3.851859888774472e-34 -3.851859888774472e-34 0.11111111111111109 1 
-7.703719777548943e-34 0.0 0.16666666666666666 1 
-7.703719777548943e-34 -7.703719777548943e-34 0.22222222222222218 1 
-7.703719777548943e-34 7.703719777548943e-34 0.2777777777777778 1 
-1.5407439555097887e-33 0.0 0.3333333333333333 1 
0.0 0.0 0.3888888888888889 1 
-1.5407439555097887e-33 -1.5407439555097887e-33 0.44444444444444436 1 
-1.5407439555097887e-33 0.0 0.5 1 Z
-1.5407439555097887e-33 0.0 0.5 1 Z
0.021739130434782608 -1.5407439555097887e-33 0.5 1 
0.04347826086956522 -1.5407439555097887e-33 0.5 1 
0.06521739130434782 -1.5407439555097887e-33 0.5 1 
0.08695652173913043 -3.0814879110195774e-33 0.5 1 
0.10869565217391304 3.0814879110195774e-33 0.5 1 
0.13043478260869562 0.0 0.5 1 
0.15217391304347824 -6.162975822039155e-33 0.5 1 
0.17391304347826086 -3.0814879110195774e-33 0.5 1 
0.1956521739130435 3.0814879110195774e-33 0.5 1 
0.21739130434782608 -3.0814879110195774e-33 0.5 1 
0.23913043478260873 3.0814879110195774e-33 0.5 1 
0.2608695652173913 3.0814879110195774e-33 0.5 1 
0.2826086956521739 -3.0814879110195774e-33 0.5 1 
0.30434782608695654 -9.244463733058732e-33 0.5 1 
0.32608695652173914 3.0814879110195774e-33 0.5 1 
0.34782608695652173 -9.244463733058732e-33 0.5 1 
0.36956521739130427 -9.244463733058732e-33 0.5 1 
0.391304347826087 3.0814879110195774e-33 0.5 1 
0.41304347826086957 -9.244463733058732e-33 0.5 1 
0.43478260869565216 3.0814879110195774e-33 0.5 1 
0.45652173913043476 -2.1570415377137042e-32 0.5 1 
0.47826086956521746 1.5407439555097887e-32 0.5 1 
0.5 1.5407439555097887e-32 0.5 1 U
0.5 1.5407439555097887e-32 0.5 1 U
0.5 0.023809523809523808 0.5 1 
0.5 0.04761904761904762 0.5 1 
0.5 0.07142857142857142 0.5 1 
0.5 0.09523809523809523 0.5 1 
0.5 0.11904761904761904 0.5 1 
0.5 0.14285714285714282 0.5 1 
0.5 0.16666666666666666 0.5 1 
0.5 0.1904761904761905 0.5 1 
0.5 0.2142857142857143 0.5 1 
0.5 0.23809523809523808 0.5 1 
0.5 0.261904761904762 0.5 1 
0.5 0.28571428571428575 0.5 1 
0.5 0.3095238095238096 0.5 1 
0.5 0.33333333333333337 0.5 1 
0.5 0.3571428571428572 0.5 1 
0.5 0.380952380952381 0.5 1 
0.5 0.4047619047619048 0.5 1 
0.5 0.4285714285714286 0.5 1 
0.5 0.45238095238095244 0.5 1 
0.5 0.4761904761904762 0.5 1 
0.5 0.5 0.5 1 R
0.5 0.5 0.5 1 R
0.47826086956521735 0.5 0.5 1 
0.4565217391304348 0.5 0.5 1 
0.43478260869565216 0.5 0.5 1 
0.41304347826086957 0.5 0.5 1 
0.3913043478260869 0.5 0.5 1 
0.3695652173913044 0.5 0.5 1 
0.34782608695652173 0.5 0.5 1 
0.32608695652173914 0.5 0.5 1 
0.3043478260869565 0.5 0.5 1 
0.2826086956521739 0.5 0.5 1 
0.2608695652173913 0.5 0.5 1 
0.23913043478260873 0.5 0.5 1 
0.21739130434782614 0.5 0.5 1 
0.19565217391304346 0.5 0.5 1 
0.17391304347826086 0.5 0.5 1 
0.15217391304347827 0.5 0.5 1 
0.1304347826086957 0.5 0.5 1 
0.10869565217391303 0.5 0.5 1 
0.08695652173913046 0.5 0.5 1 
0.06521739130434784 0.5 0.5 1 
0.04347826086956528 0.5 0.5 1 
0.021739130434782566 0.5 0.5 1 
1.1023028123202904e-17 0.5 0.5 1 T
-1.5407439555097887e-33 0.5 0.5 1 T
-1.5407439555097887e-33 0.47619047619047616 0.5 1 
-1.5407439555097887e-33 0.45238095238095244 0.5 1 
-1.5407439555097887e-33 0.42857142857142855 0.5 1 
-1.5407439555097887e-33 0.4047619047619048 0.5 1 
-1.5407439555097887e-33 0.380952380952381 0.5 1 
-1.5407439555097887e-33 0.3571428571428572 0.5 1 
-1.5407439555097887e-33 0.33333333333333337 0.5 1 
-1.5407439555097887e-33 0.30952380952380953 0.5 1 
-1.5407439555097887e-33 0.28571428571428575 0.5 1 
-1.5407439555097887e-33 0.2619047619047619 0.5 1 
-1.5407439555097887e-33 0.23809523809523808 0.5 1 
-1.5407439555097887e-33 0.21428571428571433 0.5 1 
-1.5407439555097887e-33 0.1904761904761905 0.5 1 
-1.5407439555097887e-33 0.16666666666666669 0.5 1 
-1.5407439555097887e-33 0.14285714285714288 0.5 1 
-1.5407439555097887e-33 0.11904761904761908 0.5 1 
-1.5407439555097887e-33 0.09523809523809523 0.5 1 
-1.5407439555097887e-33 0.07142857142857147 0.5 1 
-1.5407439555097887e-33 0.04761904761904762 0.5 1 
-1.5407439555097887e-33 0.023809523809523857 0.5 1 
-1.5407439555097887e-33 1.2035110192466975e-17 0.5 1 Z
0.0 0.5 0.0 1 Y
-1.925929944387236e-34 0.5 0.055555555555555546 1 
-3.851859888774472e-34 0.5 0.11111111111111109 1 
-7.703719777548943e-34 0.5 0.16666666666666666 1 
-7.703719777548943e-34 0.5 0.22222222222222218 1 
-7.703719777548943e-34 0.5 0.2777777777777778 1 
-1.5407439555097887e-33 0.5 0.3333333333333333 1 
0.0 0.5 0.3888888888888889 1 
-1.5407439555097887e-33 0.5 0.44444444444444436 1 
-1.5407439555097887e-33 0.5 0.5 1 T
0.5 1.5407439555097887e-32 0.5 1 U
0.5 1.232595164407831e-32 0.4444444444444444 1 
0.5 7.703719777548943e-33 0.3888888888888889 1 
0.5 1.5407439555097887e-32 0.33333333333333337 1 
0.5 1.0785207688568521e-32 0.2777777777777778 1 
0.5 5.3926038442842604e-33 0.22222222222222218 1 
0.5 2.311115933264683e-33 0.16666666666666669 1 
0.5 8.859277744181285e-33 0.11111111111111109 1 
0.5 5.585196838722984e-33 0.0555555555555556 1 
0.5 0.0 0.0 1 X
0.5 0.5 0.0 1 S
0.5 0.5 0.055555555555555546 1 
0.5 0.5 0.11111111111111109 1 
0.5 0.5 0.16666666666666666 1 
0.5 0.5 0.22222222222222218 1 
0.5 0.5 0.2777777777777778 1 
0.5 0.5 0.3333333333333333 1 
0.5 0.5 0.3888888888888889 1 
0.5 0.5 0.44444444444444436 1 
0.5 0.5 0.5 1 R
