Sn4 Se4
1.0
4.17214183000 0.00000000000 0.00000000000
0.00000000000 4.55520807000 0.00000000000
0.00000000000 0.00000000000 11.58801393000
Sn Se
4 4
direct
0.25000000000 0.11313331000 0.11695741000 Sn
0.75000000000 0.88686669000 0.88304259000 Sn
0.75000000000 0.61313331000 0.38304259000 Sn
0.25000000000 0.38686669000 0.61695741000 Sn
0.75000000000 0.51830297000 0.14525948000 Se
0.25000000000 0.48169703000 0.85474052000 Se
0.25000000000 0.01830297000 0.35474052000 Se
0.75000000000 0.98169703000 0.64525948000 Se
