k-points along high symmetry lines
         201
Reciprocal
  0.822717  0.338641  0.338641  1.00 P
  0.802149  0.330175  0.330175  1.00
  0.781582  0.321709  0.321709  1.00
  0.761014  0.313243  0.313243  1.00
  0.740446  0.304777  0.304777  1.00
  0.719878  0.296311  0.296311  1.00
  0.699310  0.287845  0.287845  1.00
  0.678742  0.279379  0.279379  1.00
  0.658174  0.270913  0.270913  1.00
  0.637606  0.262447  0.262447  1.00
  0.617038  0.253981  0.253981  1.00
  0.596470  0.245515  0.245515  1.00
  0.575902  0.237049  0.237049  1.00
  0.555334  0.228583  0.228583  1.00
  0.534766  0.220117  0.220117  1.00
  0.514198  0.211651  0.211651  1.00
  0.493630  0.203185  0.203185  1.00
  0.473063  0.194719  0.194719  1.00
  0.452495  0.186253  0.186253  1.00
  0.431927  0.177787  0.177787  1.00
  0.411359  0.169321  0.169321  1.00
  0.390791  0.160855  0.160855  1.00
  0.370223  0.152389  0.152389  1.00
  0.349655  0.143923  0.143923  1.00
  0.329087  0.135457  0.135457  1.00
  0.308519  0.126990  0.126990  1.00
  0.287951  0.118524  0.118524  1.00
  0.267383  0.110058  0.110058  1.00
  0.246815  0.101592  0.101592  1.00
  0.226247  0.093126  0.093126  1.00
  0.205679  0.084660  0.084660  1.00
  0.185111  0.076194  0.076194  1.00
  0.164543  0.067728  0.067728  1.00
  0.143976  0.059262  0.059262  1.00
  0.123408  0.050796  0.050796  1.00
  0.102840  0.042330  0.042330  1.00
  0.082272  0.033864  0.033864  1.00
  0.061704  0.025398  0.025398  1.00
  0.041136  0.016932  0.016932  1.00
  0.020568  0.008466  0.008466  1.00
 -0.000000  0.000000  0.000000  1.00 \Gamma
  0.012500  0.012500  0.012500  1.00
  0.025000  0.025000  0.025000  1.00
  0.037500  0.037500  0.037500  1.00
  0.050000  0.050000  0.050000  1.00
  0.062500  0.062500  0.062500  1.00
  0.075000  0.075000  0.075000  1.00
  0.087500  0.087500  0.087500  1.00
  0.100000  0.100000  0.100000  1.00
  0.112500  0.112500  0.112500  1.00
  0.125000  0.125000  0.125000  1.00
  0.137500  0.137500  0.137500  1.00
  0.150000  0.150000  0.150000  1.00
  0.162500  0.162500  0.162500  1.00
  0.175000  0.175000  0.175000  1.00
  0.187500  0.187500  0.187500  1.00
  0.200000  0.200000  0.200000  1.00
  0.212500  0.212500  0.212500  1.00
  0.225000  0.225000  0.225000  1.00
  0.237500  0.237500  0.237500  1.00
  0.250000  0.250000  0.250000  1.00
  0.262500  0.262500  0.262500  1.00
  0.275000  0.275000  0.275000  1.00
  0.287500  0.287500  0.287500  1.00
  0.300000  0.300000  0.300000  1.00
  0.312500  0.312500  0.312500  1.00
  0.325000  0.325000  0.325000  1.00
  0.337500  0.337500  0.337500  1.00
  0.350000  0.350000  0.350000  1.00
  0.362500  0.362500  0.362500  1.00
  0.375000  0.375000  0.375000  1.00
  0.387500  0.387500  0.387500  1.00
  0.400000  0.400000  0.400000  1.00
  0.412500  0.412500  0.412500  1.00
  0.425000  0.425000  0.425000  1.00
  0.437500  0.437500  0.437500  1.00
  0.450000  0.450000  0.450000  1.00
  0.462500  0.462500  0.462500  1.00
  0.475000  0.475000  0.475000  1.00
  0.487500  0.487500  0.487500  1.00
  0.500000  0.500000  0.500000  1.00 Z
  0.500000  0.500000  0.487500  1.00
  0.500000  0.500000  0.475000  1.00
  0.500000  0.500000  0.462500  1.00
  0.500000  0.500000  0.450000  1.00
  0.500000  0.500000  0.437500  1.00
  0.500000  0.500000  0.425000  1.00
  0.500000  0.500000  0.412500  1.00
  0.500000  0.500000  0.400000  1.00
  0.500000  0.500000  0.387500  1.00
  0.500000  0.500000  0.375000  1.00
  0.500000  0.500000  0.362500  1.00
  0.500000  0.500000  0.350000  1.00
  0.500000  0.500000  0.337500  1.00
  0.500000  0.500000  0.325000  1.00
  0.500000  0.500000  0.312500  1.00
  0.500000  0.500000  0.300000  1.00
  0.500000  0.500000  0.287500  1.00
  0.500000  0.500000  0.275000  1.00
  0.500000  0.500000  0.262500  1.00
  0.500000  0.500000  0.250000  1.00
  0.500000  0.500000  0.237500  1.00
  0.500000  0.500000  0.225000  1.00
  0.500000  0.500000  0.212500  1.00
  0.500000  0.500000  0.200000  1.00
  0.500000  0.500000  0.187500  1.00
  0.500000  0.500000  0.175000  1.00
  0.500000  0.500000  0.162500  1.00
  0.500000  0.500000  0.150000  1.00
  0.500000  0.500000  0.137500  1.00
  0.500000  0.500000  0.125000  1.00
  0.500000  0.500000  0.112500  1.00
  0.500000  0.500000  0.100000  1.00
  0.500000  0.500000  0.087500  1.00
  0.500000  0.500000  0.075000  1.00
  0.500000  0.500000  0.062500  1.00
  0.500000  0.500000  0.050000  1.00
  0.500000  0.500000  0.037500  1.00
  0.500000  0.500000  0.025000  1.00
  0.500000  0.500000  0.012500  1.00
  0.500000  0.500000  0.000000  1.00 F
  0.487500  0.487500  0.000000  1.00
  0.475000  0.475000  0.000000  1.00
  0.462500  0.462500  0.000000  1.00
  0.450000  0.450000  0.000000  1.00
  0.437500  0.437500  0.000000  1.00
  0.425000  0.425000  0.000000  1.00
  0.412500  0.412500  0.000000  1.00
  0.400000  0.400000  0.000000  1.00
  0.387500  0.387500  0.000000  1.00
  0.375000  0.375000  0.000000  1.00
  0.362500  0.362500  0.000000  1.00
  0.350000  0.350000  0.000000  1.00
  0.337500  0.337500  0.000000  1.00
  0.325000  0.325000  0.000000  1.00
  0.312500  0.312500  0.000000  1.00
  0.300000  0.300000  0.000000  1.00
  0.287500  0.287500  0.000000  1.00
  0.275000  0.275000  0.000000  1.00
  0.262500  0.262500  0.000000  1.00
  0.250000  0.250000  0.000000  1.00
  0.237500  0.237500  0.000000  1.00
  0.225000  0.225000  0.000000  1.00
  0.212500  0.212500  0.000000  1.00
  0.200000  0.200000  0.000000  1.00
  0.187500  0.187500  0.000000  1.00
  0.175000  0.175000  0.000000  1.00
  0.162500  0.162500  0.000000  1.00
  0.150000  0.150000  0.000000  1.00
  0.137500  0.137500  0.000000  1.00
  0.125000  0.125000  0.000000  1.00
  0.112500  0.112500  0.000000  1.00
  0.100000  0.100000  0.000000  1.00
  0.087500  0.087500  0.000000  1.00
  0.075000  0.075000  0.000000  1.00
  0.062500  0.062500  0.000000  1.00
  0.050000  0.050000  0.000000  1.00
  0.037500  0.037500  0.000000  1.00
  0.025000  0.025000  0.000000  1.00
  0.012500  0.012500  0.000000  1.00
 -0.000000  0.000000  0.000000  1.00 \Gamma
  0.016534  0.010483  0.010483  1.00
  0.033068  0.020966  0.020966  1.00
  0.049602  0.031449  0.031449  1.00
  0.066136  0.041932  0.041932  1.00
  0.082670  0.052415  0.052415  1.00
  0.099204  0.062898  0.062898  1.00
  0.115738  0.073381  0.073381  1.00
  0.132272  0.083864  0.083864  1.00
  0.148806  0.094347  0.094347  1.00
  0.165340  0.104830  0.104830  1.00
  0.181874  0.115313  0.115313  1.00
  0.198408  0.125796  0.125796  1.00
  0.214942  0.136279  0.136279  1.00
  0.231476  0.146762  0.146762  1.00
  0.248010  0.157245  0.157245  1.00
  0.264543  0.167728  0.167728  1.00
  0.281077  0.178211  0.178211  1.00
  0.297611  0.188694  0.188694  1.00
  0.314145  0.199177  0.199177  1.00
  0.330679  0.209660  0.209660  1.00
  0.347213  0.220143  0.220143  1.00
  0.363747  0.230626  0.230626  1.00
  0.380281  0.241109  0.241109  1.00
  0.396815  0.251592  0.251592  1.00
  0.413349  0.262075  0.262075  1.00
  0.429883  0.272558  0.272558  1.00
  0.446417  0.283041  0.283041  1.00
  0.462951  0.293524  0.293524  1.00
  0.479485  0.304007  0.304007  1.00
  0.496019  0.314490  0.314490  1.00
  0.512553  0.324974  0.324974  1.00
  0.529087  0.335457  0.335457  1.00
  0.545621  0.345940  0.345940  1.00
  0.562155  0.356423  0.356423  1.00
  0.578689  0.366906  0.366906  1.00
  0.595223  0.377389  0.377389  1.00
  0.611757  0.387872  0.387872  1.00
  0.628291  0.398355  0.398355  1.00
  0.644825  0.408838  0.408838  1.00
  0.661359  0.419321  0.419321  1.00 A
