EMC 1.51py
61
Reciprocal
  -0.5000000000    0.5000000000    0.3378378400 0.01
  -0.5128455721    0.4871544279    0.3378378400 0.01
  -0.5064227861    0.4935772139    0.3378378400 0.01
  -0.4935772139    0.5064227861    0.3378378400 0.01
  -0.4871544279    0.5128455721    0.3378378400 0.01
  -0.4644612677    0.4644612677    0.3378378400 0.01
  -0.4822306339    0.4822306339    0.3378378400 0.01
  -0.5177693661    0.5177693661    0.3378378400 0.01
  -0.5355387323    0.5355387323    0.3378378400 0.01
  -0.5000000000    0.5000000000    0.3122889851 0.01
  -0.5000000000    0.5000000000    0.3250634126 0.01
  -0.5000000000    0.5000000000    0.3506122674 0.01
  -0.5000000000    0.5000000000    0.3633866949 0.01
  -0.4773068398    0.4516156956    0.3378378400 0.01
  -0.4708840538    0.4580384817    0.3378378400 0.01
  -0.4580384817    0.4708840538    0.3378378400 0.01
  -0.4516156956    0.4773068398    0.3378378400 0.01
  -0.4950762060    0.4693850617    0.3378378400 0.01
  -0.4886534199    0.4758078478    0.3378378400 0.01
  -0.4758078478    0.4886534199    0.3378378400 0.01
  -0.4693850617    0.4950762060    0.3378378400 0.01
  -0.5306149383    0.5049237940    0.3378378400 0.01
  -0.5241921522    0.5113465801    0.3378378400 0.01
  -0.5113465801    0.5241921522    0.3378378400 0.01
  -0.5049237940    0.5306149383    0.3378378400 0.01
  -0.5483843044    0.5226931602    0.3378378400 0.01
  -0.5419615183    0.5291159462    0.3378378400 0.01
  -0.5291159462    0.5419615183    0.3378378400 0.01
  -0.5226931602    0.5483843044    0.3378378400 0.01
  -0.5128455721    0.4871544279    0.3122889851 0.01
  -0.5064227861    0.4935772139    0.3122889851 0.01
  -0.4935772139    0.5064227861    0.3122889851 0.01
  -0.4871544279    0.5128455721    0.3122889851 0.01
  -0.5128455721    0.4871544279    0.3250634126 0.01
  -0.5064227861    0.4935772139    0.3250634126 0.01
  -0.4935772139    0.5064227861    0.3250634126 0.01
  -0.4871544279    0.5128455721    0.3250634126 0.01
  -0.5128455721    0.4871544279    0.3506122674 0.01
  -0.5064227861    0.4935772139    0.3506122674 0.01
  -0.4935772139    0.5064227861    0.3506122674 0.01
  -0.4871544279    0.5128455721    0.3506122674 0.01
  -0.5128455721    0.4871544279    0.3633866949 0.01
  -0.5064227861    0.4935772139    0.3633866949 0.01
  -0.4935772139    0.5064227861    0.3633866949 0.01
  -0.4871544279    0.5128455721    0.3633866949 0.01
  -0.4644612677    0.4644612677    0.3122889851 0.01
  -0.4822306339    0.4822306339    0.3122889851 0.01
  -0.5177693661    0.5177693661    0.3122889851 0.01
  -0.5355387323    0.5355387323    0.3122889851 0.01
  -0.4644612677    0.4644612677    0.3250634126 0.01
  -0.4822306339    0.4822306339    0.3250634126 0.01
  -0.5177693661    0.5177693661    0.3250634126 0.01
  -0.5355387323    0.5355387323    0.3250634126 0.01
  -0.4644612677    0.4644612677    0.3506122674 0.01
  -0.4822306339    0.4822306339    0.3506122674 0.01
  -0.5177693661    0.5177693661    0.3506122674 0.01
  -0.5355387323    0.5355387323    0.3506122674 0.01
  -0.4644612677    0.4644612677    0.3633866949 0.01
  -0.4822306339    0.4822306339    0.3633866949 0.01
  -0.5177693661    0.5177693661    0.3633866949 0.01
  -0.5355387323    0.5355387323    0.3633866949 0.01
