Non SCF run along symmetry lines
200
Reciprocal
0.0 0.0 0.0 1 \Gamma
0.017241379310344827 -1.0015689466213735e-18 0.017241379310344827 1 
0.034482758620689655 -2.003137893242747e-18 0.034482758620689655 1 
0.05172413793103448 -3.0047068398641193e-18 0.05172413793103448 1 
0.06896551724137931 -4.006275786485494e-18 0.06896551724137931 1 
0.08620689655172414 -5.0078447331068655e-18 0.08620689655172414 1 
0.10344827586206896 -6.0094136797282386e-18 0.10344827586206896 1 
0.12068965517241378 -7.010982626349615e-18 0.12068965517241378 1 
0.13793103448275862 -8.012551572970988e-18 0.13793103448275862 1 
0.15517241379310343 -9.014120519592364e-18 0.15517241379310345 1 
0.1724137931034483 -1.0015689466213731e-17 0.1724137931034483 1 
0.1896551724137931 -1.101725841283511e-17 0.18965517241379307 1 
0.20689655172413793 -1.2018827359456477e-17 0.20689655172413793 1 
0.22413793103448276 -1.3020396306077856e-17 0.22413793103448276 1 
0.24137931034482757 -1.402196525269923e-17 0.24137931034482757 1 
0.25862068965517243 -1.5023534199320596e-17 0.25862068965517243 1 
0.27586206896551724 -1.6025103145941976e-17 0.27586206896551724 1 
0.29310344827586204 -1.7026672092563343e-17 0.29310344827586204 1 
0.31034482758620685 -1.8028241039184728e-17 0.3103448275862069 1 
0.3275862068965517 -1.9029809985806095e-17 0.3275862068965517 1 
0.3448275862068966 -2.0031378932427462e-17 0.3448275862068966 1 
0.3620689655172413 -2.103294787904884e-17 0.3620689655172413 1 
0.3793103448275862 -2.203451682567022e-17 0.37931034482758613 1 
0.39655172413793105 -2.3036085772291587e-17 0.39655172413793105 1 
0.41379310344827586 -2.4037654718912954e-17 0.41379310344827586 1 
0.43103448275862066 -2.5039223665534334e-17 0.4310344827586206 1 
0.4482758620689655 -2.6040792612155713e-17 0.4482758620689655 1 
0.46551724137931033 -2.7042361558777067e-17 0.46551724137931033 1 
0.48275862068965514 -2.804393050539846e-17 0.48275862068965514 1 
0.5 -2.9045499452019826e-17 0.5 1 X
0.5 -2.9045499452019826e-17 0.5 1 X
0.5 0.016666666666666642 0.5166666666666667 1 
0.5 0.03333333333333332 0.5333333333333333 1 
0.5 0.04999999999999999 0.55 1 
0.5 0.06666666666666665 0.5666666666666667 1 
0.5 0.08333333333333331 0.5833333333333334 1 
0.5 0.09999999999999999 0.6 1 
0.5 0.11666666666666665 0.6166666666666667 1 
0.49999999999999994 0.13333333333333333 0.6333333333333333 1 
0.49999999999999994 0.15 0.6499999999999999 1 
0.49999999999999994 0.16666666666666666 0.6666666666666665 1 
0.49999999999999994 0.18333333333333332 0.6833333333333332 1 
0.49999999999999994 0.2 0.7 1 
0.49999999999999994 0.21666666666666667 0.7166666666666666 1 
0.49999999999999994 0.23333333333333334 0.7333333333333333 1 
0.49999999999999994 0.25 0.7499999999999999 1 W
0.49999999999999994 0.25 0.7499999999999999 1 W
0.48863636363636354 0.2613636363636364 0.75 1 
0.47727272727272724 0.2727272727272727 0.75 1 
0.46590909090909083 0.2840909090909091 0.75 1 
0.4545454545454545 0.29545454545454547 0.75 1 
0.4431818181818181 0.3068181818181818 0.75 1 
0.43181818181818177 0.31818181818181823 0.75 1 
0.4204545454545454 0.32954545454545453 0.75 1 
0.40909090909090906 0.34090909090909094 0.75 1 
0.39772727272727265 0.35227272727272735 0.75 1 
0.38636363636363635 0.36363636363636365 0.75 1 
0.37499999999999994 0.37500000000000006 0.75 1 K
0.37499999999999994 0.37500000000000006 0.75 1 K
0.36290322580645157 0.3629032258064517 0.7258064516129032 1 
0.3508064516129032 0.3508064516129033 0.7016129032258065 1 
0.3387096774193548 0.33870967741935487 0.6774193548387097 1 
0.32661290322580644 0.3266129032258065 0.653225806451613 1 
0.314516129032258 0.3145161290322581 0.6290322580645161 1 
0.30241935483870963 0.30241935483870974 0.6048387096774194 1 
0.29032258064516125 0.29032258064516137 0.5806451612903226 1 
0.2782258064516129 0.278225806451613 0.5564516129032259 1 
0.26612903225806445 0.2661290322580645 0.532258064516129 1 
0.25403225806451607 0.2540322580645162 0.5080645161290323 1 
0.24193548387096772 0.24193548387096778 0.4838709677419355 1 
0.22983870967741934 0.22983870967741937 0.45967741935483875 1 
0.2177419354838709 0.217741935483871 0.43548387096774194 1 
0.20564516129032254 0.2056451612903226 0.41129032258064513 1 
0.19354838709677416 0.19354838709677422 0.3870967741935484 1 
0.18145161290322578 0.18145161290322584 0.3629032258064516 1 
0.1693548387096774 0.16935483870967744 0.33870967741935487 1 
0.157258064516129 0.15725806451612903 0.314516129032258 1 
0.14516129032258063 0.14516129032258068 0.2903225806451613 1 
0.13306451612903222 0.13306451612903228 0.2661290322580645 1 
0.12096774193548389 0.1209677419354839 0.2419354838709678 1 
0.10887096774193547 0.10887096774193548 0.21774193548387097 1 
0.0967741935483871 0.0967741935483871 0.1935483870967742 1 
0.08467741935483872 0.0846774193548387 0.16935483870967744 1 
0.07258064516129034 0.07258064516129038 0.14516129032258074 1 
0.060483870967741896 0.06048387096774194 0.12096774193548383 1 
0.04838709677419352 0.04838709677419355 0.09677419354838707 1 
0.036290322580645136 0.036290322580645164 0.07258064516129031 1 
0.02419354838709682 0.024193548387096774 0.04838709677419359 1 
0.01209677419354838 0.012096774193548387 0.024193548387096767 1 
0.0 0.0 0.0 1 \Gamma
0.0 0.0 0.0 1 \Gamma
0.019999999999999997 0.019999999999999997 0.02 1 
0.039999999999999994 0.039999999999999994 0.04 1 
0.06 0.06 0.05999999999999999 1 
0.07999999999999999 0.07999999999999999 0.08 1 
0.1 0.1 0.1 1 
0.12 0.12 0.11999999999999998 1 
0.14 0.14 0.13999999999999999 1 
0.15999999999999998 0.15999999999999998 0.16 1 
0.18 0.18 0.18000000000000002 1 
0.2 0.2 0.2 1 
0.22 0.22 0.22 1 
0.24 0.24 0.23999999999999996 1 
0.26 0.26 0.25999999999999995 1 
0.28 0.28 0.27999999999999997 1 
0.29999999999999993 0.3 0.29999999999999993 1 
0.31999999999999995 0.31999999999999995 0.32 1 
0.33999999999999997 0.3400000000000001 0.34 1 
0.36 0.36 0.36000000000000004 1 
0.38 0.38 0.38 1 
0.4 0.4 0.4 1 
0.41999999999999993 0.41999999999999993 0.41999999999999993 1 
0.44 0.44 0.44 1 
0.46 0.46 0.46 1 
0.48 0.48 0.4799999999999999 1 
0.5 0.5 0.49999999999999994 1 L
0.5 0.5 0.49999999999999994 1 L
0.5069444444444444 0.48611111111111116 0.5069444444444443 1 
0.5138888888888888 0.47222222222222227 0.5138888888888888 1 
0.5208333333333334 0.45833333333333337 0.5208333333333333 1 
0.5277777777777777 0.4444444444444445 0.5277777777777777 1 
0.5347222222222222 0.4305555555555556 0.5347222222222221 1 
0.5416666666666666 0.4166666666666667 0.5416666666666665 1 
0.5486111111111112 0.4027777777777778 0.548611111111111 1 
0.5555555555555556 0.38888888888888884 0.5555555555555555 1 
0.5625 0.375 0.5624999999999999 1 
0.5694444444444444 0.3611111111111111 0.5694444444444443 1 
0.576388888888889 0.3472222222222222 0.5763888888888888 1 
0.5833333333333333 0.33333333333333337 0.5833333333333333 1 
0.5902777777777778 0.3194444444444444 0.5902777777777777 1 
0.5972222222222222 0.3055555555555556 0.5972222222222221 1 
0.6041666666666667 0.2916666666666667 0.6041666666666665 1 
0.611111111111111 0.2777777777777778 0.611111111111111 1 
0.6180555555555556 0.2638888888888889 0.6180555555555555 1 
0.625 0.24999999999999997 0.6249999999999998 1 U
0.625 0.24999999999999997 0.6249999999999998 1 U
0.6136363636363636 0.24999999999999997 0.6363636363636362 1 
0.6022727272727273 0.24999999999999997 0.6477272727272726 1 
0.5909090909090909 0.25 0.659090909090909 1 
0.5795454545454545 0.25 0.6704545454545453 1 
0.5681818181818181 0.25 0.6818181818181817 1 
0.5568181818181818 0.25 0.6931818181818181 1 
0.5454545454545454 0.25 0.7045454545454544 1 
0.5340909090909091 0.25 0.7159090909090908 1 
0.5227272727272727 0.25 0.7272727272727272 1 
0.5113636363636364 0.25 0.7386363636363635 1 
0.49999999999999994 0.25 0.7499999999999999 1 W
0.49999999999999994 0.25 0.7499999999999999 1 W
0.49999999999999994 0.2619047619047619 0.738095238095238 1 
0.4999999999999999 0.27380952380952384 0.7261904761904762 1 
0.49999999999999994 0.2857142857142857 0.7142857142857143 1 
0.49999999999999994 0.2976190476190476 0.7023809523809523 1 
0.5 0.30952380952380953 0.6904761904761905 1 
0.5 0.32142857142857145 0.6785714285714286 1 
0.5 0.33333333333333337 0.6666666666666666 1 
0.49999999999999994 0.34523809523809523 0.6547619047619047 1 
0.49999999999999994 0.35714285714285715 0.6428571428571428 1 
0.49999999999999994 0.36904761904761907 0.6309523809523809 1 
0.5 0.38095238095238093 0.619047619047619 1 
0.49999999999999994 0.3928571428571428 0.607142857142857 1 
0.4999999999999999 0.40476190476190477 0.5952380952380951 1 
0.5 0.41666666666666663 0.5833333333333333 1 
0.4999999999999999 0.4285714285714286 0.5714285714285713 1 
0.49999999999999994 0.44047619047619047 0.5595238095238094 1 
0.5 0.4523809523809524 0.5476190476190474 1 
0.49999999999999994 0.4642857142857143 0.5357142857142856 1 
0.5 0.47619047619047616 0.5238095238095237 1 
0.5 0.4880952380952381 0.5119047619047619 1 
0.5 0.5 0.49999999999999994 1 L
0.5 0.5 0.49999999999999994 1 L
0.4930555555555556 0.4930555555555556 0.5138888888888888 1 
0.48611111111111105 0.48611111111111116 0.5277777777777777 1 
0.47916666666666663 0.47916666666666663 0.5416666666666665 1 
0.4722222222222222 0.4722222222222222 0.5555555555555555 1 
0.4652777777777777 0.4652777777777778 0.5694444444444444 1 
0.4583333333333333 0.45833333333333337 0.5833333333333333 1 
0.45138888888888884 0.45138888888888895 0.5972222222222221 1 
0.4444444444444444 0.44444444444444453 0.611111111111111 1 
0.43749999999999994 0.4375 0.625 1 
0.43055555555555547 0.4305555555555555 0.6388888888888888 1 
0.42361111111111105 0.42361111111111116 0.6527777777777778 1 
0.41666666666666663 0.4166666666666667 0.6666666666666665 1 
0.4097222222222222 0.40972222222222227 0.6805555555555556 1 
0.4027777777777778 0.4027777777777778 0.6944444444444444 1 
0.3958333333333333 0.3958333333333334 0.7083333333333334 1 
0.38888888888888884 0.38888888888888895 0.7222222222222223 1 
0.3819444444444444 0.3819444444444445 0.7361111111111112 1 
0.37499999999999994 0.37500000000000006 0.75 1 K
0.625 0.24999999999999997 0.6249999999999998 1 U
0.6136363636363636 0.22727272727272727 0.6136363636363635 1 
0.6022727272727273 0.20454545454545453 0.6022727272727271 1 
0.5909090909090909 0.18181818181818182 0.5909090909090907 1 
0.5795454545454545 0.15909090909090906 0.5795454545454544 1 
0.5681818181818181 0.13636363636363635 0.568181818181818 1 
0.5568181818181819 0.11363636363636362 0.5568181818181818 1 
0.5454545454545455 0.09090909090909088 0.5454545454545454 1 
0.5340909090909091 0.06818181818181818 0.5340909090909091 1 
0.5227272727272727 0.045454545454545414 0.5227272727272727 1 
0.5113636363636364 0.0227272727272727 0.5113636363636364 1 
0.5 -2.9045499452019826e-17 0.5 1 X
