Bi2 Te3
1.0
10.26342644675 -2.21881605046 0.00000000000
10.26342644675 2.21881605046 0.00000000000
9.78374797959 0.00000000000 3.81304898546
Bi Te
2 3
direct
0.39959547708 0.39959547708 0.39959547708 Bi
0.60040452292 0.60040452292 0.60040452292 Bi
0.00000000000 0.00000000000 0.00000000000 Te
0.21094280759 0.21094280759 0.21094280759 Te
0.78905719241 0.78905719241 0.78905719241 Te
