EMC 1.51py
61
Reciprocal
   0.0000000000    0.3333333300    0.0000000000 0.01
  -0.0250738313    0.3333333300    0.0000000000 0.01
  -0.0125369157    0.3333333300    0.0000000000 0.01
   0.0125369157    0.3333333300    0.0000000000 0.01
   0.0250738313    0.3333333300    0.0000000000 0.01
   0.0000000000    0.3060263696    0.0000000000 0.01
   0.0000000000    0.3196798498    0.0000000000 0.01
   0.0000000000    0.3469868102    0.0000000000 0.01
   0.0000000000    0.3606402904    0.0000000000 0.01
   0.0000000000    0.3333333300   -0.0695866693 0.01
   0.0000000000    0.3333333300   -0.0347933347 0.01
   0.0000000000    0.3333333300    0.0347933347 0.01
   0.0000000000    0.3333333300    0.0695866693 0.01
  -0.0250738313    0.3060263696    0.0000000000 0.01
  -0.0125369157    0.3060263696    0.0000000000 0.01
   0.0125369157    0.3060263696    0.0000000000 0.01
   0.0250738313    0.3060263696    0.0000000000 0.01
  -0.0250738313    0.3196798498    0.0000000000 0.01
  -0.0125369157    0.3196798498    0.0000000000 0.01
   0.0125369157    0.3196798498    0.0000000000 0.01
   0.0250738313    0.3196798498    0.0000000000 0.01
  -0.0250738313    0.3469868102    0.0000000000 0.01
  -0.0125369157    0.3469868102    0.0000000000 0.01
   0.0125369157    0.3469868102    0.0000000000 0.01
   0.0250738313    0.3469868102    0.0000000000 0.01
  -0.0250738313    0.3606402904    0.0000000000 0.01
  -0.0125369157    0.3606402904    0.0000000000 0.01
   0.0125369157    0.3606402904    0.0000000000 0.01
   0.0250738313    0.3606402904    0.0000000000 0.01
  -0.0250738313    0.3333333300   -0.0695866693 0.01
  -0.0125369157    0.3333333300   -0.0695866693 0.01
   0.0125369157    0.3333333300   -0.0695866693 0.01
   0.0250738313    0.3333333300   -0.0695866693 0.01
  -0.0250738313    0.3333333300   -0.0347933347 0.01
  -0.0125369157    0.3333333300   -0.0347933347 0.01
   0.0125369157    0.3333333300   -0.0347933347 0.01
   0.0250738313    0.3333333300   -0.0347933347 0.01
  -0.0250738313    0.3333333300    0.0347933347 0.01
  -0.0125369157    0.3333333300    0.0347933347 0.01
   0.0125369157    0.3333333300    0.0347933347 0.01
   0.0250738313    0.3333333300    0.0347933347 0.01
  -0.0250738313    0.3333333300    0.0695866693 0.01
  -0.0125369157    0.3333333300    0.0695866693 0.01
   0.0125369157    0.3333333300    0.0695866693 0.01
   0.0250738313    0.3333333300    0.0695866693 0.01
   0.0000000000    0.3060263696   -0.0695866693 0.01
   0.0000000000    0.3196798498   -0.0695866693 0.01
   0.0000000000    0.3469868102   -0.0695866693 0.01
   0.0000000000    0.3606402904   -0.0695866693 0.01
   0.0000000000    0.3060263696   -0.0347933347 0.01
   0.0000000000    0.3196798498   -0.0347933347 0.01
   0.0000000000    0.3469868102   -0.0347933347 0.01
   0.0000000000    0.3606402904   -0.0347933347 0.01
   0.0000000000    0.3060263696    0.0347933347 0.01
   0.0000000000    0.3196798498    0.0347933347 0.01
   0.0000000000    0.3469868102    0.0347933347 0.01
   0.0000000000    0.3606402904    0.0347933347 0.01
   0.0000000000    0.3060263696    0.0695866693 0.01
   0.0000000000    0.3196798498    0.0695866693 0.01
   0.0000000000    0.3469868102    0.0695866693 0.01
   0.0000000000    0.3606402904    0.0695866693 0.01
