Sn4 Se4
1.0
4.1684222499999999 0.0000000000000000 0.0000000000000003
0.0000000000000007 4.5396708600000002 0.0000000000000003
0.0000000000000000 0.0000000000000000 11.5685001300000003
Sn Se
4 4
direct
0.2500000000000000 0.1123862100000000 0.1166459600000000 Sn
0.7500000000000000 0.8876137900000000 0.8833540400000000 Sn
0.7500000000000000 0.6123862100000000 0.3833540400000000 Sn
0.2500000000000000 0.3876137900000000 0.6166459600000000 Sn
0.7500000000000000 0.5191641800000000 0.1451065000000000 Se
0.2500000000000000 0.4808358200000000 0.8548935000000000 Se
0.2500000000000000 0.0191641800000000 0.3548935000000000 Se
0.7500000000000000 0.9808358200000000 0.6451065000000000 Se
