Non SCF run along symmetry lines
200
Reciprocal
0.0 0.0 0.0 1 \Gamma
0.017241379310344827 3.851859888774472e-34 0.017241379310344827 1 
0.034482758620689655 7.703719777548943e-34 0.034482758620689655 1 
0.051724137931034475 0.0 0.05172413793103448 1 
0.06896551724137931 1.5407439555097887e-33 0.06896551724137931 1 
0.08620689655172413 0.0 0.08620689655172413 1 
0.10344827586206895 0.0 0.10344827586206896 1 
0.12068965517241378 3.0814879110195774e-33 0.12068965517241378 1 
0.13793103448275862 3.0814879110195774e-33 0.13793103448275862 1 
0.15517241379310343 -3.0814879110195774e-33 0.15517241379310343 1 
0.17241379310344826 0.0 0.17241379310344826 1 
0.18965517241379307 6.162975822039155e-33 0.18965517241379307 1 
0.2068965517241379 0.0 0.20689655172413793 1 
0.22413793103448273 6.162975822039155e-33 0.22413793103448276 1 
0.24137931034482757 6.162975822039155e-33 0.24137931034482757 1 
0.2586206896551724 0.0 0.2586206896551724 1 
0.27586206896551724 6.162975822039155e-33 0.27586206896551724 1 
0.293103448275862 6.162975822039155e-33 0.293103448275862 1 
0.31034482758620685 -6.162975822039155e-33 0.31034482758620685 1 
0.32758620689655166 1.232595164407831e-32 0.3275862068965517 1 
0.3448275862068965 0.0 0.3448275862068965 1 
0.3620689655172413 0.0 0.3620689655172414 1 
0.37931034482758613 1.232595164407831e-32 0.37931034482758613 1 
0.39655172413793105 1.232595164407831e-32 0.39655172413793105 1 
0.4137931034482758 0.0 0.41379310344827586 1 
0.4310344827586206 0.0 0.4310344827586206 1 
0.44827586206896547 1.232595164407831e-32 0.4482758620689655 1 
0.4655172413793103 0.0 0.4655172413793103 1 
0.48275862068965514 1.232595164407831e-32 0.48275862068965514 1 
0.49999999999999994 1.232595164407831e-32 0.4999999999999999 1 X
0.49999999999999994 1.232595164407831e-32 0.4999999999999999 1 X
0.49999999999999994 0.016666666666666666 0.5166666666666666 1 
0.49999999999999994 0.03333333333333334 0.5333333333333332 1 
0.49999999999999994 0.05000000000000001 0.5499999999999999 1 
0.49999999999999994 0.06666666666666667 0.5666666666666665 1 
0.49999999999999994 0.08333333333333333 0.5833333333333333 1 
0.49999999999999994 0.1 0.5999999999999999 1 
0.49999999999999994 0.11666666666666667 0.6166666666666666 1 
0.49999999999999994 0.13333333333333333 0.6333333333333333 1 
0.49999999999999994 0.15 0.6499999999999999 1 
0.49999999999999994 0.16666666666666666 0.6666666666666665 1 
0.49999999999999994 0.18333333333333335 0.6833333333333332 1 
0.49999999999999994 0.2 0.7 1 
0.49999999999999994 0.2166666666666667 0.7166666666666666 1 
0.49999999999999994 0.23333333333333334 0.7333333333333333 1 
0.49999999999999994 0.25 0.7499999999999999 1 W
0.49999999999999994 0.25 0.7499999999999999 1 W
0.4886363636363636 0.2613636363636364 0.75 1 
0.47727272727272724 0.2727272727272727 0.75 1 
0.46590909090909083 0.28409090909090906 0.75 1 
0.4545454545454545 0.2954545454545454 0.75 1 
0.4431818181818181 0.3068181818181818 0.75 1 
0.43181818181818177 0.3181818181818182 0.75 1 
0.4204545454545454 0.32954545454545453 0.75 1 
0.409090909090909 0.3409090909090909 0.7499999999999999 1 
0.39772727272727265 0.3522727272727273 0.75 1 
0.3863636363636363 0.36363636363636365 0.75 1 
0.37499999999999994 0.375 0.75 1 K
0.37499999999999994 0.375 0.75 1 K
0.3629032258064515 0.3629032258064516 0.7258064516129032 1 
0.3508064516129032 0.35080645161290325 0.7016129032258065 1 
0.33870967741935476 0.33870967741935487 0.6774193548387097 1 
0.32661290322580644 0.3266129032258065 0.653225806451613 1 
0.314516129032258 0.31451612903225806 0.629032258064516 1 
0.3024193548387097 0.30241935483870974 0.6048387096774195 1 
0.29032258064516125 0.2903225806451613 0.5806451612903225 1 
0.2782258064516128 0.27822580645161293 0.5564516129032258 1 
0.2661290322580645 0.26612903225806456 0.532258064516129 1 
0.25403225806451607 0.2540322580645162 0.5080645161290323 1 
0.2419354838709677 0.24193548387096778 0.4838709677419355 1 
0.22983870967741932 0.22983870967741937 0.45967741935483875 1 
0.21774193548387094 0.217741935483871 0.435483870967742 1 
0.20564516129032256 0.2056451612903226 0.41129032258064513 1 
0.19354838709677416 0.1935483870967742 0.3870967741935484 1 
0.18145161290322578 0.18145161290322584 0.3629032258064516 1 
0.1693548387096774 0.16935483870967746 0.33870967741935487 1 
0.157258064516129 0.15725806451612903 0.314516129032258 1 
0.14516129032258063 0.14516129032258066 0.29032258064516125 1 
0.13306451612903225 0.13306451612903228 0.2661290322580645 1 
0.12096774193548386 0.12096774193548392 0.24193548387096778 1 
0.10887096774193546 0.1088709677419355 0.21774193548387097 1 
0.09677419354838711 0.09677419354838708 0.1935483870967742 1 
0.08467741935483869 0.08467741935483873 0.16935483870967744 1 
0.07258064516129034 0.07258064516129037 0.1451612903225807 1 
0.06048387096774193 0.06048387096774196 0.12096774193548389 1 
0.048387096774193526 0.04838709677419354 0.09677419354838707 1 
0.03629032258064517 0.036290322580645185 0.07258064516129036 1 
0.02419354838709682 0.02419354838709677 0.04838709677419359 1 
0.012096774193548352 0.012096774193548356 0.024193548387096708 1 
0.0 0.0 0.0 1 \Gamma
0.0 0.0 0.0 1 \Gamma
0.019999999999999997 0.020000000000000004 0.02 1 
0.039999999999999994 0.04000000000000001 0.04 1 
0.059999999999999984 0.06 0.06 1 
0.07999999999999999 0.08000000000000002 0.08 1 
0.1 0.1 0.1 1 
0.11999999999999997 0.12 0.12 1 
0.13999999999999999 0.14 0.14 1 
0.15999999999999998 0.16000000000000003 0.16 1 
0.18 0.18 0.18 1 
0.2 0.2 0.2 1 
0.21999999999999997 0.22 0.22 1 
0.23999999999999994 0.24 0.24 1 
0.26 0.26 0.26 1 
0.27999999999999997 0.28 0.28 1 
0.29999999999999993 0.30000000000000004 0.29999999999999993 1 
0.31999999999999995 0.32000000000000006 0.32 1 
0.34 0.34 0.34 1 
0.36 0.36 0.36 1 
0.37999999999999995 0.38 0.38000000000000006 1 
0.4 0.4 0.4 1 
0.41999999999999993 0.42000000000000004 0.42 1 
0.43999999999999995 0.44 0.44 1 
0.45999999999999996 0.4600000000000001 0.46 1 
0.47999999999999987 0.48 0.48 1 
0.5 0.5 0.49999999999999994 1 L
0.5 0.5 0.49999999999999994 1 L
0.5069444444444444 0.48611111111111116 0.5069444444444444 1 
0.5138888888888888 0.4722222222222222 0.5138888888888888 1 
0.5208333333333333 0.45833333333333337 0.5208333333333333 1 
0.5277777777777777 0.4444444444444444 0.5277777777777777 1 
0.5347222222222222 0.4305555555555556 0.5347222222222221 1 
0.5416666666666666 0.41666666666666674 0.5416666666666665 1 
0.548611111111111 0.4027777777777778 0.5486111111111109 1 
0.5555555555555555 0.38888888888888895 0.5555555555555555 1 
0.5625 0.375 0.5624999999999999 1 
0.5694444444444444 0.36111111111111116 0.5694444444444444 1 
0.5763888888888888 0.3472222222222222 0.5763888888888888 1 
0.5833333333333333 0.33333333333333337 0.5833333333333333 1 
0.5902777777777777 0.3194444444444444 0.5902777777777777 1 
0.5972222222222221 0.3055555555555556 0.5972222222222221 1 
0.6041666666666665 0.29166666666666663 0.6041666666666666 1 
0.611111111111111 0.2777777777777778 0.611111111111111 1 
0.6180555555555555 0.26388888888888884 0.6180555555555555 1 
0.6249999999999999 0.24999999999999997 0.6249999999999999 1 U
0.6249999999999999 0.24999999999999997 0.6249999999999999 1 U
0.6136363636363635 0.24999999999999997 0.6363636363636362 1 
0.6022727272727272 0.24999999999999997 0.6477272727272726 1 
0.5909090909090908 0.24999999999999997 0.659090909090909 1 
0.5795454545454545 0.25 0.6704545454545454 1 
0.5681818181818181 0.24999999999999997 0.6818181818181817 1 
0.5568181818181818 0.24999999999999997 0.6931818181818181 1 
0.5454545454545454 0.25 0.7045454545454545 1 
0.5340909090909091 0.25 0.7159090909090908 1 
0.5227272727272727 0.25 0.7272727272727272 1 
0.5113636363636364 0.25 0.7386363636363635 1 
0.49999999999999994 0.25 0.7499999999999999 1 W
0.49999999999999994 0.25 0.7499999999999999 1 W
0.49999999999999994 0.2619047619047619 0.738095238095238 1 
0.4999999999999999 0.27380952380952384 0.7261904761904762 1 
0.49999999999999994 0.2857142857142857 0.7142857142857142 1 
0.49999999999999994 0.2976190476190476 0.7023809523809523 1 
0.49999999999999994 0.30952380952380953 0.6904761904761904 1 
0.4999999999999999 0.32142857142857145 0.6785714285714285 1 
0.49999999999999994 0.33333333333333337 0.6666666666666666 1 
0.5 0.34523809523809523 0.6547619047619048 1 
0.4999999999999999 0.3571428571428571 0.6428571428571428 1 
0.5 0.36904761904761907 0.6309523809523809 1 
0.4999999999999999 0.38095238095238093 0.619047619047619 1 
0.49999999999999994 0.39285714285714285 0.6071428571428571 1 
0.4999999999999999 0.40476190476190477 0.5952380952380951 1 
0.5 0.41666666666666663 0.5833333333333333 1 
0.5 0.4285714285714286 0.5714285714285714 1 
0.49999999999999994 0.44047619047619047 0.5595238095238095 1 
0.5 0.4523809523809524 0.5476190476190476 1 
0.49999999999999994 0.4642857142857143 0.5357142857142857 1 
0.4999999999999999 0.4761904761904762 0.5238095238095237 1 
0.5 0.48809523809523814 0.5119047619047619 1 
0.5 0.5 0.49999999999999994 1 L
0.5 0.5 0.49999999999999994 1 L
0.4930555555555555 0.4930555555555556 0.5138888888888888 1 
0.48611111111111105 0.4861111111111111 0.5277777777777777 1 
0.47916666666666663 0.47916666666666674 0.5416666666666666 1 
0.4722222222222222 0.4722222222222222 0.5555555555555555 1 
0.4652777777777778 0.4652777777777778 0.5694444444444444 1 
0.45833333333333326 0.4583333333333333 0.5833333333333333 1 
0.45138888888888884 0.4513888888888889 0.5972222222222222 1 
0.4444444444444444 0.4444444444444444 0.611111111111111 1 
0.43749999999999994 0.4375 0.625 1 
0.4305555555555555 0.4305555555555555 0.6388888888888888 1 
0.42361111111111105 0.4236111111111111 0.6527777777777777 1 
0.4166666666666666 0.41666666666666663 0.6666666666666665 1 
0.40972222222222215 0.4097222222222222 0.6805555555555556 1 
0.4027777777777777 0.4027777777777778 0.6944444444444444 1 
0.39583333333333326 0.39583333333333337 0.7083333333333333 1 
0.38888888888888884 0.3888888888888889 0.7222222222222221 1 
0.3819444444444444 0.3819444444444445 0.7361111111111112 1 
0.37499999999999994 0.375 0.75 1 K
0.6249999999999999 0.24999999999999997 0.6249999999999999 1 U
0.6136363636363635 0.22727272727272724 0.6136363636363635 1 
0.6022727272727272 0.20454545454545453 0.6022727272727272 1 
0.5909090909090908 0.1818181818181818 0.5909090909090908 1 
0.5795454545454545 0.15909090909090906 0.5795454545454545 1 
0.5681818181818181 0.13636363636363635 0.5681818181818181 1 
0.5568181818181818 0.11363636363636365 0.5568181818181818 1 
0.5454545454545454 0.09090909090909091 0.5454545454545454 1 
0.5340909090909091 0.06818181818181818 0.534090909090909 1 
0.5227272727272727 0.04545454545454544 0.5227272727272726 1 
0.5113636363636364 0.022727272727272735 0.5113636363636362 1 
0.49999999999999994 1.232595164407831e-32 0.4999999999999999 1 X
